p cnf 3222 21485
-97 -1 0
-97 -2 0
-97 -3 0
-97 -4 0
-97 -5 0
-97 -6 0
-97 -7 0
-97 -8 0
-97 -9 0
-97 -10 0
-97 -11 0
-97 -12 0
-97 -13 0
-97 -14 0
-97 -15 0
-97 -16 0
-97 -17 0
-97 -18 0
-97 -19 0
-97 -20 0
-97 -21 0
-97 -22 0
-97 -23 0
-97 -24 0
-97 -25 0
-97 -26 0
-97 -27 0
-97 -28 0
-97 -29 0
-97 -30 0
-97 -31 0
-97 -32 0
-97 -33 0
-97 -34 0
-97 -35 0
-97 -36 0
-97 -37 0
-97 -38 0
-97 -39 0
-97 -40 0
-97 -41 0
-97 -42 0
-97 -43 0
-97 -44 0
-97 -45 0
-97 -46 0
-97 -47 0
-97 -48 0
-97 -49 0
-97 -50 0
-97 -51 0
-97 -52 0
-97 -53 0
-97 -54 0
-97 -55 0
-97 -56 0
-97 -57 0
-97 -58 0
-97 -59 0
-97 -60 0
-97 -61 0
-97 -62 0
-97 -63 0
-97 -64 0
-97 -65 0
-97 -66 0
-97 -67 0
-97 -68 0
-97 -69 0
-97 -70 0
-97 -71 0
-97 -72 0
-97 -73 0
-97 -74 0
-97 -75 0
-97 -76 0
-97 -77 0
-97 -78 0
-97 -79 0
-97 -80 0
-97 -81 0
-97 -82 0
-97 -83 0
-97 -84 0
-97 -85 0
-97 -86 0
-97 -87 0
-97 -88 0
-97 -89 0
-97 -90 0
-97 -91 0
-97 -92 0
-97 -93 0
-97 -94 0
-97 -95 0
-97 -96 0
97 1 2 3 4 5 6 7 8 9 10 11 12 13 14 15 16 17 18 19 20 21 22 23 24 25 26 27 28 29 30 31 32 33 34 35 36 37 38 39 40 41 42 43 44 45 46 47 48 49 50 51 52 53 54 55 56 57 58 59 60 61 62 63 64 65 66 67 68 69 70 71 72 73 74 75 76 77 78 79 80 81 82 83 84 85 86 87 88 89 90 91 92 93 94 95 96 0
-98 -97 0
98 97 0
-99 1 0
99 -1 0
-100 2 0
100 -2 0
-101 3 0
101 -3 0
-102 4 0
102 -4 0
-103 5 0
103 -5 0
-104 6 0
104 -6 0
-105 7 0
105 -7 0
-106 8 0
106 -8 0
-107 9 0
107 -9 0
-108 10 0
108 -10 0
-109 11 0
109 -11 0
-110 12 0
110 -12 0
-111 13 0
111 -13 0
-112 14 0
112 -14 0
-113 15 0
113 -15 0
-114 16 0
114 -16 0
-115 17 0
115 -17 0
-116 18 0
116 -18 0
-117 19 0
117 -19 0
-118 20 0
118 -20 0
-119 21 0
119 -21 0
-120 22 0
120 -22 0
-121 23 0
121 -23 0
-122 24 0
122 -24 0
-123 25 0
123 -25 0
-124 26 0
124 -26 0
-125 27 0
125 -27 0
-126 28 0
126 -28 0
-127 29 0
127 -29 0
-128 30 0
128 -30 0
-129 31 0
129 -31 0
-130 32 0
130 -32 0
-131 33 0
131 -33 0
-132 34 0
132 -34 0
-133 35 0
133 -35 0
-134 36 0
134 -36 0
-135 37 0
135 -37 0
-136 38 0
136 -38 0
-137 39 0
137 -39 0
-138 40 0
138 -40 0
-139 41 0
139 -41 0
-140 42 0
140 -42 0
-141 43 0
141 -43 0
-142 44 0
142 -44 0
-143 45 0
143 -45 0
-144 46 0
144 -46 0
-145 47 0
145 -47 0
-146 48 0
146 -48 0
-147 49 0
147 -49 0
-148 50 0
148 -50 0
-149 51 0
149 -51 0
-150 52 0
150 -52 0
-151 53 0
151 -53 0
-152 54 0
152 -54 0
-153 55 0
153 -55 0
-154 56 0
154 -56 0
-155 57 0
155 -57 0
-156 58 0
156 -58 0
-157 59 0
157 -59 0
-158 60 0
158 -60 0
-159 61 0
159 -61 0
-160 62 0
160 -62 0
-161 63 0
161 -63 0
-162 64 0
162 -64 0
-163 65 0
163 -65 0
-164 66 0
164 -66 0
-165 67 0
165 -67 0
-166 68 0
166 -68 0
-167 69 0
167 -69 0
-168 70 0
168 -70 0
-169 71 0
169 -71 0
-170 72 0
170 -72 0
-171 73 0
171 -73 0
-172 74 0
172 -74 0
-173 75 0
173 -75 0
-174 76 0
174 -76 0
-175 77 0
175 -77 0
-176 78 0
176 -78 0
-177 79 0
177 -79 0
-178 80 0
178 -80 0
-179 81 0
179 -81 0
-180 82 0
180 -82 0
-181 83 0
181 -83 0
-182 84 0
182 -84 0
-183 85 0
183 -85 0
-184 86 0
184 -86 0
-185 87 0
185 -87 0
-186 88 0
186 -88 0
-187 89 0
187 -89 0
-188 90 0
188 -90 0
-189 91 0
189 -91 0
-190 92 0
190 -92 0
-191 93 0
191 -93 0
-192 94 0
192 -94 0
-193 95 0
193 -95 0
-194 96 0
194 -96 0
-195 -99 0
-195 -100 0
-195 -101 0
-195 -102 0
-195 -103 0
-195 -104 0
-195 -105 0
-195 -106 0
-195 -107 0
-195 -108 0
-195 -109 0
-195 -110 0
-195 -111 0
-195 -112 0
-195 -113 0
-195 -114 0
-195 -115 0
-195 -116 0
-195 -117 0
-195 -118 0
-195 -119 0
-195 -120 0
-195 -121 0
-195 -122 0
-195 -123 0
-195 -124 0
-195 -125 0
-195 -126 0
-195 -127 0
-195 -128 0
-195 -129 0
-195 -130 0
-195 -131 0
-195 -132 0
-195 -133 0
-195 -134 0
-195 -135 0
-195 -136 0
-195 -137 0
-195 -138 0
-195 -139 0
-195 -140 0
-195 -141 0
-195 -142 0
-195 -143 0
-195 -144 0
-195 -145 0
-195 -146 0
-195 -147 0
-195 -148 0
-195 -149 0
-195 -150 0
-195 -151 0
-195 -152 0
-195 -153 0
-195 -154 0
-195 -155 0
-195 -156 0
-195 -157 0
-195 -158 0
-195 -159 0
-195 -160 0
-195 -161 0
-195 -162 0
-195 -163 0
-195 -164 0
-195 -165 0
-195 -166 0
-195 -167 0
-195 -168 0
-195 -169 0
-195 -170 0
-195 -171 0
-195 -172 0
-195 -173 0
-195 -174 0
-195 -175 0
-195 -176 0
-195 -177 0
-195 -178 0
-195 -179 0
-195 -180 0
-195 -181 0
-195 -182 0
-195 -183 0
-195 -184 0
-195 -185 0
-195 -186 0
-195 -187 0
-195 -188 0
-195 -189 0
-195 -190 0
-195 -191 0
-195 -192 0
-195 -193 0
-195 -194 0
195 99 100 101 102 103 104 105 106 107 108 109 110 111 112 113 114 115 116 117 118 119 120 121 122 123 124 125 126 127 128 129 130 131 132 133 134 135 136 137 138 139 140 141 142 143 144 145 146 147 148 149 150 151 152 153 154 155 156 157 158 159 160 161 162 163 164 165 166 167 168 169 170 171 172 173 174 175 176 177 178 179 180 181 182 183 184 185 186 187 188 189 190 191 192 193 194 0
-98 -195 0
-196 -1 0
-196 -6 0
-196 -7 0
-196 -9 0
-196 -10 0
-196 -14 0
-196 -15 0
-196 -19 0
-196 -20 0
-196 -22 0
-196 -23 0
-196 -24 0
-196 -26 0
-196 -27 0
-196 -31 0
-196 -32 0
-196 -35 0
-196 -36 0
-196 -43 0
-196 -45 0
-196 -49 0
-196 -54 0
-196 -55 0
-196 -57 0
-196 -58 0
-196 -62 0
-196 -63 0
-196 -67 0
-196 -68 0
-196 -70 0
-196 -71 0
-196 -72 0
-196 -74 0
-196 -75 0
-196 -79 0
-196 -80 0
-196 -83 0
-196 -84 0
-196 -91 0
-196 -93 0
196 1 6 7 9 10 14 15 19 20 22 23 24 26 27 31 32 35 36 43 45 49 54 55 57 58 62 63 67 68 70 71 72 74 75 79 80 83 84 91 93 0
-197 -2 0
-197 -3 0
-197 -4 0
-197 -5 0
-197 -8 0
-197 -11 0
-197 -12 0
-197 -13 0
-197 -16 0
-197 -17 0
-197 -18 0
-197 -21 0
-197 -25 0
-197 -28 0
-197 -29 0
-197 -30 0
-197 -33 0
-197 -34 0
-197 -37 0
-197 -38 0
-197 -39 0
-197 -40 0
-197 -41 0
-197 -42 0
-197 -44 0
-197 -46 0
-197 -47 0
-197 -48 0
-197 -50 0
-197 -51 0
-197 -52 0
-197 -53 0
-197 -56 0
-197 -59 0
-197 -60 0
-197 -61 0
-197 -64 0
-197 -65 0
-197 -66 0
-197 -69 0
-197 -73 0
-197 -76 0
-197 -77 0
-197 -78 0
-197 -81 0
-197 -82 0
-197 -85 0
-197 -86 0
-197 -87 0
-197 -88 0
-197 -89 0
-197 -90 0
-197 -92 0
-197 -94 0
-197 -95 0
-197 -96 0
197 2 3 4 5 8 11 12 13 16 17 18 21 25 28 29 30 33 34 37 38 39 40 41 42 44 46 47 48 50 51 52 53 56 59 60 61 64 65 66 69 73 76 77 78 81 82 85 86 87 88 89 90 92 94 95 96 0
-198 -196 0
-198 -197 0
198 196 197 0
-199 5 0
-199 6 0
199 -5 -6 0
-200 8 0
-200 9 0
200 -8 -9 0
-201 13 0
-201 14 0
201 -13 -14 0
-202 18 0
-202 19 0
202 -18 -19 0
-203 21 0
-203 22 0
203 -21 -22 0
-204 25 0
-204 26 0
204 -25 -26 0
-205 30 0
-205 31 0
205 -30 -31 0
-206 34 0
-206 35 0
206 -34 -35 0
-207 42 0
-207 43 0
207 -42 -43 0
-208 44 0
-208 45 0
208 -44 -45 0
-209 53 0
-209 54 0
209 -53 -54 0
-210 56 0
-210 57 0
210 -56 -57 0
-211 61 0
-211 62 0
211 -61 -62 0
-212 66 0
-212 67 0
212 -66 -67 0
-213 69 0
-213 70 0
213 -69 -70 0
-214 73 0
-214 74 0
214 -73 -74 0
-215 78 0
-215 79 0
215 -78 -79 0
-216 82 0
-216 83 0
216 -82 -83 0
-217 90 0
-217 91 0
217 -90 -91 0
-218 92 0
-218 93 0
218 -92 -93 0
-219 -199 0
-219 -200 0
-219 -201 0
-219 -202 0
-219 -203 0
-219 -204 0
-219 -205 0
-219 -206 0
-219 -207 0
-219 -208 0
-219 -209 0
-219 -210 0
-219 -211 0
-219 -212 0
-219 -213 0
-219 -214 0
-219 -215 0
-219 -216 0
-219 -217 0
-219 -218 0
219 199 200 201 202 203 204 205 206 207 208 209 210 211 212 213 214 215 216 217 218 0
-198 -219 0
-220 -1 0
-220 -7 0
-220 -10 0
-220 -15 0
-220 -20 0
-220 -23 0
-220 -24 0
-220 -27 0
-220 -32 0
-220 -36 0
-220 -44 0
-220 -45 0
-220 -49 0
-220 -55 0
-220 -58 0
-220 -63 0
-220 -68 0
-220 -71 0
-220 -72 0
-220 -75 0
-220 -80 0
-220 -84 0
-220 -92 0
-220 -93 0
220 1 7 10 15 20 23 24 27 32 36 44 45 49 55 58 63 68 71 72 75 80 84 92 93 0
-221 -2 0
-221 -3 0
-221 -4 0
-221 -5 0
-221 -6 0
-221 -8 0
-221 -9 0
-221 -11 0
-221 -12 0
-221 -13 0
-221 -14 0
-221 -16 0
-221 -17 0
-221 -18 0
-221 -19 0
-221 -21 0
-221 -22 0
-221 -25 0
-221 -26 0
-221 -28 0
-221 -29 0
-221 -30 0
-221 -31 0
-221 -33 0
-221 -34 0
-221 -35 0
-221 -37 0
-221 -38 0
-221 -39 0
-221 -40 0
-221 -41 0
-221 -42 0
-221 -43 0
-221 -46 0
-221 -47 0
-221 -48 0
-221 -50 0
-221 -51 0
-221 -52 0
-221 -53 0
-221 -54 0
-221 -56 0
-221 -57 0
-221 -59 0
-221 -60 0
-221 -61 0
-221 -62 0
-221 -64 0
-221 -65 0
-221 -66 0
-221 -67 0
-221 -69 0
-221 -70 0
-221 -73 0
-221 -74 0
-221 -76 0
-221 -77 0
-221 -78 0
-221 -79 0
-221 -81 0
-221 -82 0
-221 -83 0
-221 -85 0
-221 -86 0
-221 -87 0
-221 -88 0
-221 -89 0
-221 -90 0
-221 -91 0
-221 -94 0
-221 -95 0
-221 -96 0
221 2 3 4 5 6 8 9 11 12 13 14 16 17 18 19 21 22 25 26 28 29 30 31 33 34 35 37 38 39 40 41 42 43 46 47 48 50 51 52 53 54 56 57 59 60 61 62 64 65 66 67 69 70 73 74 76 77 78 79 81 82 83 85 86 87 88 89 90 91 94 95 96 0
-222 -220 0
-222 -221 0
222 220 221 0
-223 6 0
-223 7 0
223 -6 -7 0
-224 9 0
-224 10 0
224 -9 -10 0
-225 14 0
-225 15 0
225 -14 -15 0
-226 19 0
-226 20 0
226 -19 -20 0
-227 22 0
-227 23 0
227 -22 -23 0
-228 26 0
-228 27 0
228 -26 -27 0
-229 31 0
-229 32 0
229 -31 -32 0
-230 35 0
-230 36 0
230 -35 -36 0
-231 42 0
-231 44 0
231 -42 -44 0
-232 43 0
-232 45 0
232 -43 -45 0
-233 54 0
-233 55 0
233 -54 -55 0
-234 57 0
-234 58 0
234 -57 -58 0
-235 62 0
-235 63 0
235 -62 -63 0
-236 67 0
-236 68 0
236 -67 -68 0
-237 70 0
-237 71 0
237 -70 -71 0
-238 74 0
-238 75 0
238 -74 -75 0
-239 79 0
-239 80 0
239 -79 -80 0
-240 83 0
-240 84 0
240 -83 -84 0
-241 90 0
-241 92 0
241 -90 -92 0
-242 91 0
-242 93 0
242 -91 -93 0
-243 -223 0
-243 -224 0
-243 -225 0
-243 -226 0
-243 -227 0
-243 -228 0
-243 -229 0
-243 -230 0
-243 -231 0
-243 -232 0
-243 -233 0
-243 -234 0
-243 -235 0
-243 -236 0
-243 -237 0
-243 -238 0
-243 -239 0
-243 -240 0
-243 -241 0
-243 -242 0
243 223 224 225 226 227 228 229 230 231 232 233 234 235 236 237 238 239 240 241 242 0
-222 -243 0
-244 -1 0
-244 -7 0
-244 -10 0
-244 -15 0
-244 -20 0
-244 -23 0
-244 -24 0
-244 -27 0
-244 -32 0
-244 -36 0
-244 -45 0
-244 -49 0
-244 -55 0
-244 -58 0
-244 -63 0
-244 -68 0
-244 -71 0
-244 -72 0
-244 -75 0
-244 -80 0
-244 -84 0
-244 -93 0
244 1 7 10 15 20 23 24 27 32 36 45 49 55 58 63 68 71 72 75 80 84 93 0
-245 -44 0
-245 -92 0
245 44 92 0
-246 -6 0
-246 -9 0
-246 -14 0
-246 -19 0
-246 -22 0
-246 -26 0
-246 -31 0
-246 -35 0
-246 -43 0
-246 -54 0
-246 -57 0
-246 -62 0
-246 -67 0
-246 -70 0
-246 -74 0
-246 -79 0
-246 -83 0
-246 -91 0
246 6 9 14 19 22 26 31 35 43 54 57 62 67 70 74 79 83 91 0
-247 -2 0
-247 -3 0
-247 -4 0
-247 -5 0
-247 -8 0
-247 -11 0
-247 -12 0
-247 -13 0
-247 -16 0
-247 -17 0
-247 -18 0
-247 -21 0
-247 -25 0
-247 -28 0
-247 -29 0
-247 -30 0
-247 -33 0
-247 -34 0
-247 -37 0
-247 -38 0
-247 -39 0
-247 -40 0
-247 -41 0
-247 -42 0
-247 -46 0
-247 -47 0
-247 -48 0
-247 -50 0
-247 -51 0
-247 -52 0
-247 -53 0
-247 -56 0
-247 -59 0
-247 -60 0
-247 -61 0
-247 -64 0
-247 -65 0
-247 -66 0
-247 -69 0
-247 -73 0
-247 -76 0
-247 -77 0
-247 -78 0
-247 -81 0
-247 -82 0
-247 -85 0
-247 -86 0
-247 -87 0
-247 -88 0
-247 -89 0
-247 -90 0
-247 -94 0
-247 -95 0
-247 -96 0
247 2 3 4 5 8 11 12 13 16 17 18 21 25 28 29 30 33 34 37 38 39 40 41 42 46 47 48 50 51 52 53 56 59 60 61 64 65 66 69 73 76 77 78 81 82 85 86 87 88 89 90 94 95 96 0
-248 -244 0
-248 -245 0
-248 -246 0
-248 -247 0
248 244 245 246 247 0
-249 42 0
-249 43 0
-249 44 0
-249 45 0
249 -42 -43 -44 -45 0
-250 90 0
-250 91 0
-250 92 0
-250 93 0
250 -90 -91 -92 -93 0
-251 -249 0
-251 -250 0
251 249 250 0
-248 -251 0
-252 -1 0
-252 -2 0
-252 -3 0
-252 -4 0
-252 -5 0
-252 -6 0
-252 -7 0
-252 -11 0
-252 -12 0
-252 -16 0
-252 -17 0
-252 -21 0
-252 -22 0
-252 -23 0
-252 -25 0
-252 -26 0
-252 -27 0
-252 -28 0
-252 -29 0
-252 -30 0
-252 -31 0
-252 -32 0
-252 -33 0
-252 -37 0
-252 -38 0
-252 -39 0
-252 -40 0
-252 -41 0
-252 -46 0
-252 -47 0
-252 -48 0
-252 -49 0
-252 -50 0
-252 -51 0
-252 -52 0
-252 -53 0
-252 -54 0
-252 -55 0
-252 -59 0
-252 -60 0
-252 -64 0
-252 -65 0
-252 -69 0
-252 -70 0
-252 -71 0
-252 -73 0
-252 -74 0
-252 -75 0
-252 -76 0
-252 -77 0
-252 -78 0
-252 -79 0
-252 -80 0
-252 -81 0
-252 -85 0
-252 -86 0
-252 -87 0
-252 -88 0
-252 -89 0
-252 -94 0
-252 -95 0
-252 -96 0
252 1 2 3 4 5 6 7 11 12 16 17 21 22 23 25 26 27 28 29 30 31 32 33 37 38 39 40 41 46 47 48 49 50 51 52 53 54 55 59 60 64 65 69 70 71 73 74 75 76 77 78 79 80 81 85 86 87 88 89 94 95 96 0
-253 -8 0
-253 -9 0
-253 -10 0
-253 -13 0
-253 -14 0
-253 -15 0
-253 -18 0
-253 -19 0
-253 -20 0
-253 -24 0
-253 -34 0
-253 -35 0
-253 -36 0
-253 -42 0
-253 -43 0
-253 -44 0
-253 -45 0
-253 -56 0
-253 -57 0
-253 -58 0
-253 -61 0
-253 -62 0
-253 -63 0
-253 -66 0
-253 -67 0
-253 -68 0
-253 -72 0
-253 -82 0
-253 -83 0
-253 -84 0
-253 -90 0
-253 -91 0
-253 -92 0
-253 -93 0
253 8 9 10 13 14 15 18 19 20 24 34 35 36 42 43 44 45 56 57 58 61 62 63 66 67 68 72 82 83 84 90 91 92 93 0
-254 -252 0
-254 -253 0
254 252 253 0
-255 8 0
-255 11 0
255 -8 -11 0
-256 13 0
-256 16 0
256 -13 -16 0
-257 18 0
-257 21 0
257 -18 -21 0
-258 19 0
-258 22 0
258 -19 -22 0
-259 20 0
-259 23 0
259 -20 -23 0
-260 24 0
-260 27 0
260 -24 -27 0
-261 34 0
-261 37 0
261 -34 -37 0
-262 42 0
-262 46 0
262 -42 -46 0
-263 56 0
-263 59 0
263 -56 -59 0
-264 61 0
-264 64 0
264 -61 -64 0
-265 66 0
-265 69 0
265 -66 -69 0
-266 67 0
-266 70 0
266 -67 -70 0
-267 68 0
-267 71 0
267 -68 -71 0
-268 72 0
-268 75 0
268 -72 -75 0
-269 82 0
-269 85 0
269 -82 -85 0
-270 90 0
-270 94 0
270 -90 -94 0
-271 -255 0
-271 -256 0
-271 -257 0
-271 -258 0
-271 -259 0
-271 -260 0
-271 -261 0
-271 -262 0
-271 -263 0
-271 -264 0
-271 -265 0
-271 -266 0
-271 -267 0
-271 -268 0
-271 -269 0
-271 -270 0
271 255 256 257 258 259 260 261 262 263 264 265 266 267 268 269 270 0
-254 -271 0
-272 -1 0
-272 -6 0
-272 -7 0
-272 -22 0
-272 -23 0
-272 -26 0
-272 -27 0
-272 -31 0
-272 -32 0
-272 -49 0
-272 -54 0
-272 -55 0
-272 -70 0
-272 -71 0
-272 -74 0
-272 -75 0
-272 -79 0
-272 -80 0
272 1 6 7 22 23 26 27 31 32 49 54 55 70 71 74 75 79 80 0
-273 -2 0
-273 -3 0
-273 -4 0
-273 -5 0
-273 -11 0
-273 -12 0
-273 -16 0
-273 -17 0
-273 -21 0
-273 -25 0
-273 -28 0
-273 -29 0
-273 -30 0
-273 -33 0
-273 -37 0
-273 -38 0
-273 -39 0
-273 -40 0
-273 -41 0
-273 -46 0
-273 -47 0
-273 -48 0
-273 -50 0
-273 -51 0
-273 -52 0
-273 -53 0
-273 -59 0
-273 -60 0
-273 -64 0
-273 -65 0
-273 -69 0
-273 -73 0
-273 -76 0
-273 -77 0
-273 -78 0
-273 -81 0
-273 -85 0
-273 -86 0
-273 -87 0
-273 -88 0
-273 -89 0
-273 -94 0
-273 -95 0
-273 -96 0
273 2 3 4 5 11 12 16 17 21 25 28 29 30 33 37 38 39 40 41 46 47 48 50 51 52 53 59 60 64 65 69 73 76 77 78 81 85 86 87 88 89 94 95 96 0
-274 -9 0
-274 -10 0
-274 -14 0
-274 -15 0
-274 -19 0
-274 -20 0
-274 -24 0
-274 -35 0
-274 -36 0
-274 -43 0
-274 -45 0
-274 -57 0
-274 -58 0
-274 -62 0
-274 -63 0
-274 -67 0
-274 -68 0
-274 -72 0
-274 -83 0
-274 -84 0
-274 -91 0
-274 -93 0
274 9 10 14 15 19 20 24 35 36 43 45 57 58 62 63 67 68 72 83 84 91 93 0
-275 -8 0
-275 -13 0
-275 -18 0
-275 -34 0
-275 -42 0
-275 -44 0
-275 -56 0
-275 -61 0
-275 -66 0
-275 -82 0
-275 -90 0
-275 -92 0
275 8 13 18 34 42 44 56 61 66 82 90 92 0
-276 -272 0
-276 -273 0
-276 -274 0
-276 -275 0
276 272 273 274 275 0
-277 18 0
-277 19 0
-277 21 0
-277 22 0
277 -18 -19 -21 -22 0
-278 66 0
-278 67 0
-278 69 0
-278 70 0
278 -66 -67 -69 -70 0
-279 -277 0
-279 -278 0
279 277 278 0
-276 -279 0
-280 -1 0
-280 -7 0
-280 -23 0
-280 -27 0
-280 -32 0
-280 -49 0
-280 -55 0
-280 -71 0
-280 -75 0
-280 -80 0
280 1 7 23 27 32 49 55 71 75 80 0
-281 -2 0
-281 -3 0
-281 -4 0
-281 -5 0
-281 -6 0
-281 -11 0
-281 -12 0
-281 -16 0
-281 -17 0
-281 -21 0
-281 -22 0
-281 -25 0
-281 -26 0
-281 -28 0
-281 -29 0
-281 -30 0
-281 -31 0
-281 -33 0
-281 -37 0
-281 -38 0
-281 -39 0
-281 -40 0
-281 -41 0
-281 -46 0
-281 -47 0
-281 -48 0
-281 -50 0
-281 -51 0
-281 -52 0
-281 -53 0
-281 -54 0
-281 -59 0
-281 -60 0
-281 -64 0
-281 -65 0
-281 -69 0
-281 -70 0
-281 -73 0
-281 -74 0
-281 -76 0
-281 -77 0
-281 -78 0
-281 -79 0
-281 -81 0
-281 -85 0
-281 -86 0
-281 -87 0
-281 -88 0
-281 -89 0
-281 -94 0
-281 -95 0
-281 -96 0
281 2 3 4 5 6 11 12 16 17 21 22 25 26 28 29 30 31 33 37 38 39 40 41 46 47 48 50 51 52 53 54 59 60 64 65 69 70 73 74 76 77 78 79 81 85 86 87 88 89 94 95 96 0
-282 -10 0
-282 -15 0
-282 -20 0
-282 -24 0
-282 -36 0
-282 -44 0
-282 -45 0
-282 -58 0
-282 -63 0
-282 -68 0
-282 -72 0
-282 -84 0
-282 -92 0
-282 -93 0
282 10 15 20 24 36 44 45 58 63 68 72 84 92 93 0
-283 -8 0
-283 -9 0
-283 -13 0
-283 -14 0
-283 -18 0
-283 -19 0
-283 -34 0
-283 -35 0
-283 -42 0
-283 -43 0
-283 -56 0
-283 -57 0
-283 -61 0
-283 -62 0
-283 -66 0
-283 -67 0
-283 -82 0
-283 -83 0
-283 -90 0
-283 -91 0
283 8 9 13 14 18 19 34 35 42 43 56 57 61 62 66 67 82 83 90 91 0
-284 -280 0
-284 -281 0
-284 -282 0
-284 -283 0
284 280 281 282 283 0
-285 19 0
-285 20 0
-285 22 0
-285 23 0
285 -19 -20 -22 -23 0
-286 67 0
-286 68 0
-286 70 0
-286 71 0
286 -67 -68 -70 -71 0
-287 -285 0
-287 -286 0
287 285 286 0
-284 -287 0
-288 -1 0
-288 -2 0
-288 -3 0
-288 -4 0
-288 -5 0
-288 -6 0
-288 -7 0
-288 -12 0
-288 -17 0
-288 -24 0
-288 -25 0
-288 -26 0
-288 -27 0
-288 -28 0
-288 -29 0
-288 -30 0
-288 -31 0
-288 -32 0
-288 -33 0
-288 -38 0
-288 -39 0
-288 -40 0
-288 -41 0
-288 -47 0
-288 -48 0
-288 -49 0
-288 -50 0
-288 -51 0
-288 -52 0
-288 -53 0
-288 -54 0
-288 -55 0
-288 -60 0
-288 -65 0
-288 -72 0
-288 -73 0
-288 -74 0
-288 -75 0
-288 -76 0
-288 -77 0
-288 -78 0
-288 -79 0
-288 -80 0
-288 -81 0
-288 -86 0
-288 -87 0
-288 -88 0
-288 -89 0
-288 -95 0
-288 -96 0
288 1 2 3 4 5 6 7 12 17 24 25 26 27 28 29 30 31 32 33 38 39 40 41 47 48 49 50 51 52 53 54 55 60 65 72 73 74 75 76 77 78 79 80 81 86 87 88 89 95 96 0
-289 -8 0
-289 -9 0
-289 -10 0
-289 -11 0
-289 -13 0
-289 -14 0
-289 -15 0
-289 -16 0
-289 -18 0
-289 -19 0
-289 -20 0
-289 -21 0
-289 -22 0
-289 -23 0
-289 -34 0
-289 -35 0
-289 -36 0
-289 -37 0
-289 -42 0
-289 -43 0
-289 -44 0
-289 -45 0
-289 -46 0
-289 -56 0
-289 -57 0
-289 -58 0
-289 -59 0
-289 -61 0
-289 -62 0
-289 -63 0
-289 -64 0
-289 -66 0
-289 -67 0
-289 -68 0
-289 -69 0
-289 -70 0
-289 -71 0
-289 -82 0
-289 -83 0
-289 -84 0
-289 -85 0
-289 -90 0
-289 -91 0
-289 -92 0
-289 -93 0
-289 -94 0
289 8 9 10 11 13 14 15 16 18 19 20 21 22 23 34 35 36 37 42 43 44 45 46 56 57 58 59 61 62 63 64 66 67 68 69 70 71 82 83 84 85 90 91 92 93 94 0
-290 -288 0
-290 -289 0
290 288 289 0
-291 11 0
-291 12 0
291 -11 -12 0
-292 16 0
-292 17 0
292 -16 -17 0
-293 20 0
-293 24 0
293 -20 -24 0
-294 21 0
-294 25 0
294 -21 -25 0
-295 22 0
-295 26 0
295 -22 -26 0
-296 23 0
-296 27 0
296 -23 -27 0
-297 37 0
-297 38 0
297 -37 -38 0
-298 46 0
-298 47 0
298 -46 -47 0
-299 59 0
-299 60 0
299 -59 -60 0
-300 64 0
-300 65 0
300 -64 -65 0
-301 68 0
-301 72 0
301 -68 -72 0
-302 69 0
-302 73 0
302 -69 -73 0
-303 70 0
-303 74 0
303 -70 -74 0
-304 71 0
-304 75 0
304 -71 -75 0
-305 85 0
-305 86 0
305 -85 -86 0
-306 94 0
-306 95 0
306 -94 -95 0
-307 -291 0
-307 -292 0
-307 -293 0
-307 -294 0
-307 -295 0
-307 -296 0
-307 -297 0
-307 -298 0
-307 -299 0
-307 -300 0
-307 -301 0
-307 -302 0
-307 -303 0
-307 -304 0
-307 -305 0
-307 -306 0
307 291 292 293 294 295 296 297 298 299 300 301 302 303 304 305 306 0
-290 -307 0
-308 -1 0
-308 -6 0
-308 -7 0
-308 -24 0
-308 -26 0
-308 -27 0
-308 -31 0
-308 -32 0
-308 -49 0
-308 -54 0
-308 -55 0
-308 -72 0
-308 -74 0
-308 -75 0
-308 -79 0
-308 -80 0
308 1 6 7 24 26 27 31 32 49 54 55 72 74 75 79 80 0
-309 -2 0
-309 -3 0
-309 -4 0
-309 -5 0
-309 -12 0
-309 -17 0
-309 -25 0
-309 -28 0
-309 -29 0
-309 -30 0
-309 -33 0
-309 -38 0
-309 -39 0
-309 -40 0
-309 -41 0
-309 -47 0
-309 -48 0
-309 -50 0
-309 -51 0
-309 -52 0
-309 -53 0
-309 -60 0
-309 -65 0
-309 -73 0
-309 -76 0
-309 -77 0
-309 -78 0
-309 -81 0
-309 -86 0
-309 -87 0
-309 -88 0
-309 -89 0
-309 -95 0
-309 -96 0
309 2 3 4 5 12 17 25 28 29 30 33 38 39 40 41 47 48 50 51 52 53 60 65 73 76 77 78 81 86 87 88 89 95 96 0
-310 -9 0
-310 -10 0
-310 -14 0
-310 -15 0
-310 -19 0
-310 -20 0
-310 -22 0
-310 -23 0
-310 -35 0
-310 -36 0
-310 -43 0
-310 -45 0
-310 -57 0
-310 -58 0
-310 -62 0
-310 -63 0
-310 -67 0
-310 -68 0
-310 -70 0
-310 -71 0
-310 -83 0
-310 -84 0
-310 -91 0
-310 -93 0
310 9 10 14 15 19 20 22 23 35 36 43 45 57 58 62 63 67 68 70 71 83 84 91 93 0
-311 -8 0
-311 -11 0
-311 -13 0
-311 -16 0
-311 -18 0
-311 -21 0
-311 -34 0
-311 -37 0
-311 -42 0
-311 -44 0
-311 -46 0
-311 -56 0
-311 -59 0
-311 -61 0
-311 -64 0
-311 -66 0
-311 -69 0
-311 -82 0
-311 -85 0
-311 -90 0
-311 -92 0
-311 -94 0
311 8 11 13 16 18 21 34 37 42 44 46 56 59 61 64 66 69 82 85 90 92 94 0
-312 -308 0
-312 -309 0
-312 -310 0
-312 -311 0
312 308 309 310 311 0
-313 21 0
-313 22 0
-313 25 0
-313 26 0
313 -21 -22 -25 -26 0
-314 69 0
-314 70 0
-314 73 0
-314 74 0
314 -69 -70 -73 -74 0
-315 -313 0
-315 -314 0
315 313 314 0
-312 -315 0
-316 -1 0
-316 -7 0
-316 -24 0
-316 -27 0
-316 -32 0
-316 -49 0
-316 -55 0
-316 -72 0
-316 -75 0
-316 -80 0
316 1 7 24 27 32 49 55 72 75 80 0
-317 -2 0
-317 -3 0
-317 -4 0
-317 -5 0
-317 -6 0
-317 -12 0
-317 -17 0
-317 -25 0
-317 -26 0
-317 -28 0
-317 -29 0
-317 -30 0
-317 -31 0
-317 -33 0
-317 -38 0
-317 -39 0
-317 -40 0
-317 -41 0
-317 -47 0
-317 -48 0
-317 -50 0
-317 -51 0
-317 -52 0
-317 -53 0
-317 -54 0
-317 -60 0
-317 -65 0
-317 -73 0
-317 -74 0
-317 -76 0
-317 -77 0
-317 -78 0
-317 -79 0
-317 -81 0
-317 -86 0
-317 -87 0
-317 -88 0
-317 -89 0
-317 -95 0
-317 -96 0
317 2 3 4 5 6 12 17 25 26 28 29 30 31 33 38 39 40 41 47 48 50 51 52 53 54 60 65 73 74 76 77 78 79 81 86 87 88 89 95 96 0
-318 -10 0
-318 -15 0
-318 -20 0
-318 -23 0
-318 -36 0
-318 -44 0
-318 -45 0
-318 -58 0
-318 -63 0
-318 -68 0
-318 -71 0
-318 -84 0
-318 -92 0
-318 -93 0
318 10 15 20 23 36 44 45 58 63 68 71 84 92 93 0
-319 -8 0
-319 -9 0
-319 -11 0
-319 -13 0
-319 -14 0
-319 -16 0
-319 -18 0
-319 -19 0
-319 -21 0
-319 -22 0
-319 -34 0
-319 -35 0
-319 -37 0
-319 -42 0
-319 -43 0
-319 -46 0
-319 -56 0
-319 -57 0
-319 -59 0
-319 -61 0
-319 -62 0
-319 -64 0
-319 -66 0
-319 -67 0
-319 -69 0
-319 -70 0
-319 -82 0
-319 -83 0
-319 -85 0
-319 -90 0
-319 -91 0
-319 -94 0
319 8 9 11 13 14 16 18 19 21 22 34 35 37 42 43 46 56 57 59 61 62 64 66 67 69 70 82 83 85 90 91 94 0
-320 -316 0
-320 -317 0
-320 -318 0
-320 -319 0
320 316 317 318 319 0
-321 22 0
-321 23 0
-321 26 0
-321 27 0
321 -22 -23 -26 -27 0
-322 70 0
-322 71 0
-322 74 0
-322 75 0
322 -70 -71 -74 -75 0
-323 -321 0
-323 -322 0
323 321 322 0
-320 -323 0
-324 -1 0
-324 -2 0
-324 -3 0
-324 -4 0
-324 -5 0
-324 -6 0
-324 -7 0
-324 -12 0
-324 -17 0
-324 -25 0
-324 -26 0
-324 -27 0
-324 -28 0
-324 -29 0
-324 -30 0
-324 -31 0
-324 -32 0
-324 -33 0
-324 -38 0
-324 -39 0
-324 -40 0
-324 -41 0
-324 -47 0
-324 -48 0
-324 -49 0
-324 -50 0
-324 -51 0
-324 -52 0
-324 -53 0
-324 -54 0
-324 -55 0
-324 -60 0
-324 -65 0
-324 -73 0
-324 -74 0
-324 -75 0
-324 -76 0
-324 -77 0
-324 -78 0
-324 -79 0
-324 -80 0
-324 -81 0
-324 -86 0
-324 -87 0
-324 -88 0
-324 -89 0
-324 -95 0
-324 -96 0
324 1 2 3 4 5 6 7 12 17 25 26 27 28 29 30 31 32 33 38 39 40 41 47 48 49 50 51 52 53 54 55 60 65 73 74 75 76 77 78 79 80 81 86 87 88 89 95 96 0
-325 -24 0
-325 -72 0
325 24 72 0
-326 -11 0
-326 -16 0
-326 -21 0
-326 -22 0
-326 -23 0
-326 -37 0
-326 -46 0
-326 -59 0
-326 -64 0
-326 -69 0
-326 -70 0
-326 -71 0
-326 -85 0
-326 -94 0
326 11 16 21 22 23 37 46 59 64 69 70 71 85 94 0
-327 -8 0
-327 -9 0
-327 -10 0
-327 -13 0
-327 -14 0
-327 -15 0
-327 -18 0
-327 -19 0
-327 -20 0
-327 -34 0
-327 -35 0
-327 -36 0
-327 -42 0
-327 -43 0
-327 -44 0
-327 -45 0
-327 -56 0
-327 -57 0
-327 -58 0
-327 -61 0
-327 -62 0
-327 -63 0
-327 -66 0
-327 -67 0
-327 -68 0
-327 -82 0
-327 -83 0
-327 -84 0
-327 -90 0
-327 -91 0
-327 -92 0
-327 -93 0
327 8 9 10 13 14 15 18 19 20 34 35 36 42 43 44 45 56 57 58 61 62 63 66 67 68 82 83 84 90 91 92 93 0
-328 -324 0
-328 -325 0
-328 -326 0
-328 -327 0
328 324 325 326 327 0
-329 20 0
-329 23 0
-329 24 0
-329 27 0
329 -20 -23 -24 -27 0
-330 68 0
-330 71 0
-330 72 0
-330 75 0
330 -68 -71 -72 -75 0
-331 -329 0
-331 -330 0
331 329 330 0
-328 -331 0
-332 -1 0
-332 -3 0
-332 -5 0
-332 -6 0
-332 -7 0
-332 -13 0
-332 -14 0
-332 -15 0
-332 -16 0
-332 -17 0
-332 -18 0
-332 -19 0
-332 -20 0
-332 -21 0
-332 -22 0
-332 -23 0
-332 -24 0
-332 -25 0
-332 -26 0
-332 -27 0
-332 -29 0
-332 -30 0
-332 -31 0
-332 -32 0
-332 -49 0
-332 -51 0
-332 -53 0
-332 -54 0
-332 -55 0
-332 -61 0
-332 -62 0
-332 -63 0
-332 -64 0
-332 -65 0
-332 -66 0
-332 -67 0
-332 -68 0
-332 -69 0
-332 -70 0
-332 -71 0
-332 -72 0
-332 -73 0
-332 -74 0
-332 -75 0
-332 -77 0
-332 -78 0
-332 -79 0
-332 -80 0
332 1 3 5 6 7 13 14 15 16 17 18 19 20 21 22 23 24 25 26 27 29 30 31 32 49 51 53 54 55 61 62 63 64 65 66 67 68 69 70 71 72 73 74 75 77 78 79 80 0
-333 -2 0
-333 -4 0
-333 -8 0
-333 -9 0
-333 -10 0
-333 -11 0
-333 -12 0
-333 -28 0
-333 -33 0
-333 -34 0
-333 -35 0
-333 -36 0
-333 -37 0
-333 -38 0
-333 -39 0
-333 -40 0
-333 -41 0
-333 -42 0
-333 -43 0
-333 -44 0
-333 -45 0
-333 -46 0
-333 -47 0
-333 -48 0
-333 -50 0
-333 -52 0
-333 -56 0
-333 -57 0
-333 -58 0
-333 -59 0
-333 -60 0
-333 -76 0
-333 -81 0
-333 -82 0
-333 -83 0
-333 -84 0
-333 -85 0
-333 -86 0
-333 -87 0
-333 -88 0
-333 -89 0
-333 -90 0
-333 -91 0
-333 -92 0
-333 -93 0
-333 -94 0
-333 -95 0
-333 -96 0
333 2 4 8 9 10 11 12 28 33 34 35 36 37 38 39 40 41 42 43 44 45 46 47 48 50 52 56 57 58 59 60 76 81 82 83 84 85 86 87 88 89 90 91 92 93 94 95 96 0
-334 -332 0
-334 -333 0
334 332 333 0
-335 2 0
-335 3 0
335 -2 -3 0
-336 4 0
-336 5 0
336 -4 -5 0
-337 8 0
-337 13 0
337 -8 -13 0
-338 9 0
-338 14 0
338 -9 -14 0
-339 10 0
-339 15 0
339 -10 -15 0
-340 11 0
-340 16 0
340 -11 -16 0
-341 12 0
-341 17 0
341 -12 -17 0
-342 28 0
-342 29 0
342 -28 -29 0
-343 50 0
-343 51 0
343 -50 -51 0
-344 52 0
-344 53 0
344 -52 -53 0
-345 56 0
-345 61 0
345 -56 -61 0
-346 57 0
-346 62 0
346 -57 -62 0
-347 58 0
-347 63 0
347 -58 -63 0
-348 59 0
-348 64 0
348 -59 -64 0
-349 60 0
-349 65 0
349 -60 -65 0
-350 76 0
-350 77 0
350 -76 -77 0
-351 -335 0
-351 -336 0
-351 -337 0
-351 -338 0
-351 -339 0
-351 -340 0
-351 -341 0
-351 -342 0
-351 -343 0
-351 -344 0
-351 -345 0
-351 -346 0
-351 -347 0
-351 -348 0
-351 -349 0
-351 -350 0
351 335 336 337 338 339 340 341 342 343 344 345 346 347 348 349 350 0
-334 -351 0
-352 -1 0
-352 -6 0
-352 -7 0
-352 -14 0
-352 -15 0
-352 -19 0
-352 -20 0
-352 -22 0
-352 -23 0
-352 -24 0
-352 -26 0
-352 -27 0
-352 -31 0
-352 -32 0
-352 -49 0
-352 -54 0
-352 -55 0
-352 -62 0
-352 -63 0
-352 -67 0
-352 -68 0
-352 -70 0
-352 -71 0
-352 -72 0
-352 -74 0
-352 -75 0
-352 -79 0
-352 -80 0
352 1 6 7 14 15 19 20 22 23 24 26 27 31 32 49 54 55 62 63 67 68 70 71 72 74 75 79 80 0
-353 -3 0
-353 -5 0
-353 -13 0
-353 -16 0
-353 -17 0
-353 -18 0
-353 -21 0
-353 -25 0
-353 -29 0
-353 -30 0
-353 -51 0
-353 -53 0
-353 -61 0
-353 -64 0
-353 -65 0
-353 -66 0
-353 -69 0
-353 -73 0
-353 -77 0
-353 -78 0
353 3 5 13 16 17 18 21 25 29 30 51 53 61 64 65 66 69 73 77 78 0
-354 -9 0
-354 -10 0
-354 -35 0
-354 -36 0
-354 -43 0
-354 -45 0
-354 -57 0
-354 -58 0
-354 -83 0
-354 -84 0
-354 -91 0
-354 -93 0
354 9 10 35 36 43 45 57 58 83 84 91 93 0
-355 -2 0
-355 -4 0
-355 -8 0
-355 -11 0
-355 -12 0
-355 -28 0
-355 -33 0
-355 -34 0
-355 -37 0
-355 -38 0
-355 -39 0
-355 -40 0
-355 -41 0
-355 -42 0
-355 -44 0
-355 -46 0
-355 -47 0
-355 -48 0
-355 -50 0
-355 -52 0
-355 -56 0
-355 -59 0
-355 -60 0
-355 -76 0
-355 -81 0
-355 -82 0
-355 -85 0
-355 -86 0
-355 -87 0
-355 -88 0
-355 -89 0
-355 -90 0
-355 -92 0
-355 -94 0
-355 -95 0
-355 -96 0
355 2 4 8 11 12 28 33 34 37 38 39 40 41 42 44 46 47 48 50 52 56 59 60 76 81 82 85 86 87 88 89 90 92 94 95 96 0
-356 -352 0
-356 -353 0
-356 -354 0
-356 -355 0
356 352 353 354 355 0
-357 8 0
-357 9 0
-357 13 0
-357 14 0
357 -8 -9 -13 -14 0
-358 56 0
-358 57 0
-358 61 0
-358 62 0
358 -56 -57 -61 -62 0
-359 -357 0
-359 -358 0
359 357 358 0
-356 -359 0
-360 -1 0
-360 -7 0
-360 -15 0
-360 -20 0
-360 -23 0
-360 -24 0
-360 -27 0
-360 -32 0
-360 -49 0
-360 -55 0
-360 -63 0
-360 -68 0
-360 -71 0
-360 -72 0
-360 -75 0
-360 -80 0
360 1 7 15 20 23 24 27 32 49 55 63 68 71 72 75 80 0
-361 -3 0
-361 -5 0
-361 -6 0
-361 -13 0
-361 -14 0
-361 -16 0
-361 -17 0
-361 -18 0
-361 -19 0
-361 -21 0
-361 -22 0
-361 -25 0
-361 -26 0
-361 -29 0
-361 -30 0
-361 -31 0
-361 -51 0
-361 -53 0
-361 -54 0
-361 -61 0
-361 -62 0
-361 -64 0
-361 -65 0
-361 -66 0
-361 -67 0
-361 -69 0
-361 -70 0
-361 -73 0
-361 -74 0
-361 -77 0
-361 -78 0
-361 -79 0
361 3 5 6 13 14 16 17 18 19 21 22 25 26 29 30 31 51 53 54 61 62 64 65 66 67 69 70 73 74 77 78 79 0
-362 -10 0
-362 -36 0
-362 -44 0
-362 -45 0
-362 -58 0
-362 -84 0
-362 -92 0
-362 -93 0
362 10 36 44 45 58 84 92 93 0
-363 -2 0
-363 -4 0
-363 -8 0
-363 -9 0
-363 -11 0
-363 -12 0
-363 -28 0
-363 -33 0
-363 -34 0
-363 -35 0
-363 -37 0
-363 -38 0
-363 -39 0
-363 -40 0
-363 -41 0
-363 -42 0
-363 -43 0
-363 -46 0
-363 -47 0
-363 -48 0
-363 -50 0
-363 -52 0
-363 -56 0
-363 -57 0
-363 -59 0
-363 -60 0
-363 -76 0
-363 -81 0
-363 -82 0
-363 -83 0
-363 -85 0
-363 -86 0
-363 -87 0
-363 -88 0
-363 -89 0
-363 -90 0
-363 -91 0
-363 -94 0
-363 -95 0
-363 -96 0
363 2 4 8 9 11 12 28 33 34 35 37 38 39 40 41 42 43 46 47 48 50 52 56 57 59 60 76 81 82 83 85 86 87 88 89 90 91 94 95 96 0
-364 -360 0
-364 -361 0
-364 -362 0
-364 -363 0
364 360 361 362 363 0
-365 9 0
-365 10 0
-365 14 0
-365 15 0
365 -9 -10 -14 -15 0
-366 57 0
-366 58 0
-366 62 0
-366 63 0
366 -57 -58 -62 -63 0
-367 -365 0
-367 -366 0
367 365 366 0
-364 -367 0
-368 -1 0
-368 -3 0
-368 -5 0
-368 -6 0
-368 -7 0
-368 -16 0
-368 -17 0
-368 -21 0
-368 -22 0
-368 -23 0
-368 -25 0
-368 -26 0
-368 -27 0
-368 -29 0
-368 -30 0
-368 -31 0
-368 -32 0
-368 -49 0
-368 -51 0
-368 -53 0
-368 -54 0
-368 -55 0
-368 -64 0
-368 -65 0
-368 -69 0
-368 -70 0
-368 -71 0
-368 -73 0
-368 -74 0
-368 -75 0
-368 -77 0
-368 -78 0
-368 -79 0
-368 -80 0
368 1 3 5 6 7 16 17 21 22 23 25 26 27 29 30 31 32 49 51 53 54 55 64 65 69 70 71 73 74 75 77 78 79 80 0
-369 -13 0
-369 -14 0
-369 -15 0
-369 -18 0
-369 -19 0
-369 -20 0
-369 -24 0
-369 -61 0
-369 -62 0
-369 -63 0
-369 -66 0
-369 -67 0
-369 -68 0
-369 -72 0
369 13 14 15 18 19 20 24 61 62 63 66 67 68 72 0
-370 -2 0
-370 -4 0
-370 -11 0
-370 -12 0
-370 -28 0
-370 -33 0
-370 -37 0
-370 -38 0
-370 -39 0
-370 -40 0
-370 -41 0
-370 -46 0
-370 -47 0
-370 -48 0
-370 -50 0
-370 -52 0
-370 -59 0
-370 -60 0
-370 -76 0
-370 -81 0
-370 -85 0
-370 -86 0
-370 -87 0
-370 -88 0
-370 -89 0
-370 -94 0
-370 -95 0
-370 -96 0
370 2 4 11 12 28 33 37 38 39 40 41 46 47 48 50 52 59 60 76 81 85 86 87 88 89 94 95 96 0
-371 -8 0
-371 -9 0
-371 -10 0
-371 -34 0
-371 -35 0
-371 -36 0
-371 -42 0
-371 -43 0
-371 -44 0
-371 -45 0
-371 -56 0
-371 -57 0
-371 -58 0
-371 -82 0
-371 -83 0
-371 -84 0
-371 -90 0
-371 -91 0
-371 -92 0
-371 -93 0
371 8 9 10 34 35 36 42 43 44 45 56 57 58 82 83 84 90 91 92 93 0
-372 -368 0
-372 -369 0
-372 -370 0
-372 -371 0
372 368 369 370 371 0
-373 8 0
-373 11 0
-373 13 0
-373 16 0
373 -8 -11 -13 -16 0
-374 56 0
-374 59 0
-374 61 0
-374 64 0
374 -56 -59 -61 -64 0
-375 -373 0
-375 -374 0
375 373 374 0
-372 -375 0
-376 -1 0
-376 -3 0
-376 -5 0
-376 -6 0
-376 -7 0
-376 -17 0
-376 -24 0
-376 -25 0
-376 -26 0
-376 -27 0
-376 -29 0
-376 -30 0
-376 -31 0
-376 -32 0
-376 -49 0
-376 -51 0
-376 -53 0
-376 -54 0
-376 -55 0
-376 -65 0
-376 -72 0
-376 -73 0
-376 -74 0
-376 -75 0
-376 -77 0
-376 -78 0
-376 -79 0
-376 -80 0
376 1 3 5 6 7 17 24 25 26 27 29 30 31 32 49 51 53 54 55 65 72 73 74 75 77 78 79 80 0
-377 -13 0
-377 -14 0
-377 -15 0
-377 -16 0
-377 -18 0
-377 -19 0
-377 -20 0
-377 -21 0
-377 -22 0
-377 -23 0
-377 -61 0
-377 -62 0
-377 -63 0
-377 -64 0
-377 -66 0
-377 -67 0
-377 -68 0
-377 -69 0
-377 -70 0
-377 -71 0
377 13 14 15 16 18 19 20 21 22 23 61 62 63 64 66 67 68 69 70 71 0
-378 -2 0
-378 -4 0
-378 -12 0
-378 -28 0
-378 -33 0
-378 -38 0
-378 -39 0
-378 -40 0
-378 -41 0
-378 -47 0
-378 -48 0
-378 -50 0
-378 -52 0
-378 -60 0
-378 -76 0
-378 -81 0
-378 -86 0
-378 -87 0
-378 -88 0
-378 -89 0
-378 -95 0
-378 -96 0
378 2 4 12 28 33 38 39 40 41 47 48 50 52 60 76 81 86 87 88 89 95 96 0
-379 -8 0
-379 -9 0
-379 -10 0
-379 -11 0
-379 -34 0
-379 -35 0
-379 -36 0
-379 -37 0
-379 -42 0
-379 -43 0
-379 -44 0
-379 -45 0
-379 -46 0
-379 -56 0
-379 -57 0
-379 -58 0
-379 -59 0
-379 -82 0
-379 -83 0
-379 -84 0
-379 -85 0
-379 -90 0
-379 -91 0
-379 -92 0
-379 -93 0
-379 -94 0
379 8 9 10 11 34 35 36 37 42 43 44 45 46 56 57 58 59 82 83 84 85 90 91 92 93 94 0
-380 -376 0
-380 -377 0
-380 -378 0
-380 -379 0
380 376 377 378 379 0
-381 11 0
-381 12 0
-381 16 0
-381 17 0
381 -11 -12 -16 -17 0
-382 59 0
-382 60 0
-382 64 0
-382 65 0
382 -59 -60 -64 -65 0
-383 -381 0
-383 -382 0
383 381 382 0
-380 -383 0
-384 -1 0
-384 -4 0
-384 -5 0
-384 -6 0
-384 -7 0
-384 -18 0
-384 -19 0
-384 -20 0
-384 -21 0
-384 -22 0
-384 -23 0
-384 -24 0
-384 -25 0
-384 -26 0
-384 -27 0
-384 -30 0
-384 -31 0
-384 -32 0
-384 -49 0
-384 -52 0
-384 -53 0
-384 -54 0
-384 -55 0
-384 -66 0
-384 -67 0
-384 -68 0
-384 -69 0
-384 -70 0
-384 -71 0
-384 -72 0
-384 -73 0
-384 -74 0
-384 -75 0
-384 -78 0
-384 -79 0
-384 -80 0
384 1 4 5 6 7 18 19 20 21 22 23 24 25 26 27 30 31 32 49 52 53 54 55 66 67 68 69 70 71 72 73 74 75 78 79 80 0
-385 -2 0
-385 -3 0
-385 -8 0
-385 -9 0
-385 -10 0
-385 -11 0
-385 -12 0
-385 -13 0
-385 -14 0
-385 -15 0
-385 -16 0
-385 -17 0
-385 -28 0
-385 -29 0
-385 -33 0
-385 -34 0
-385 -35 0
-385 -36 0
-385 -37 0
-385 -38 0
-385 -39 0
-385 -40 0
-385 -41 0
-385 -42 0
-385 -43 0
-385 -44 0
-385 -45 0
-385 -46 0
-385 -47 0
-385 -48 0
-385 -50 0
-385 -51 0
-385 -56 0
-385 -57 0
-385 -58 0
-385 -59 0
-385 -60 0
-385 -61 0
-385 -62 0
-385 -63 0
-385 -64 0
-385 -65 0
-385 -76 0
-385 -77 0
-385 -81 0
-385 -82 0
-385 -83 0
-385 -84 0
-385 -85 0
-385 -86 0
-385 -87 0
-385 -88 0
-385 -89 0
-385 -90 0
-385 -91 0
-385 -92 0
-385 -93 0
-385 -94 0
-385 -95 0
-385 -96 0
385 2 3 8 9 10 11 12 13 14 15 16 17 28 29 33 34 35 36 37 38 39 40 41 42 43 44 45 46 47 48 50 51 56 57 58 59 60 61 62 63 64 65 76 77 81 82 83 84 85 86 87 88 89 90 91 92 93 94 95 96 0
-386 -384 0
-386 -385 0
386 384 385 0
-387 2 0
-387 4 0
387 -2 -4 0
-388 3 0
-388 5 0
388 -3 -5 0
-389 13 0
-389 18 0
389 -13 -18 0
-390 14 0
-390 19 0
390 -14 -19 0
-391 15 0
-391 20 0
391 -15 -20 0
-392 16 0
-392 21 0
392 -16 -21 0
-393 17 0
-393 25 0
393 -17 -25 0
-394 29 0
-394 30 0
394 -29 -30 0
-395 50 0
-395 52 0
395 -50 -52 0
-396 51 0
-396 53 0
396 -51 -53 0
-397 61 0
-397 66 0
397 -61 -66 0
-398 62 0
-398 67 0
398 -62 -67 0
-399 63 0
-399 68 0
399 -63 -68 0
-400 64 0
-400 69 0
400 -64 -69 0
-401 65 0
-401 73 0
401 -65 -73 0
-402 77 0
-402 78 0
402 -77 -78 0
-403 -387 0
-403 -388 0
-403 -389 0
-403 -390 0
-403 -391 0
-403 -392 0
-403 -393 0
-403 -394 0
-403 -395 0
-403 -396 0
-403 -397 0
-403 -398 0
-403 -399 0
-403 -400 0
-403 -401 0
-403 -402 0
403 387 388 389 390 391 392 393 394 395 396 397 398 399 400 401 402 0
-386 -403 0
-404 -1 0
-404 -6 0
-404 -7 0
-404 -19 0
-404 -20 0
-404 -22 0
-404 -23 0
-404 -24 0
-404 -26 0
-404 -27 0
-404 -31 0
-404 -32 0
-404 -49 0
-404 -54 0
-404 -55 0
-404 -67 0
-404 -68 0
-404 -70 0
-404 -71 0
-404 -72 0
-404 -74 0
-404 -75 0
-404 -79 0
-404 -80 0
404 1 6 7 19 20 22 23 24 26 27 31 32 49 54 55 67 68 70 71 72 74 75 79 80 0
-405 -4 0
-405 -5 0
-405 -18 0
-405 -21 0
-405 -25 0
-405 -30 0
-405 -52 0
-405 -53 0
-405 -66 0
-405 -69 0
-405 -73 0
-405 -78 0
405 4 5 18 21 25 30 52 53 66 69 73 78 0
-406 -9 0
-406 -10 0
-406 -14 0
-406 -15 0
-406 -35 0
-406 -36 0
-406 -43 0
-406 -45 0
-406 -57 0
-406 -58 0
-406 -62 0
-406 -63 0
-406 -83 0
-406 -84 0
-406 -91 0
-406 -93 0
406 9 10 14 15 35 36 43 45 57 58 62 63 83 84 91 93 0
-407 -2 0
-407 -3 0
-407 -8 0
-407 -11 0
-407 -12 0
-407 -13 0
-407 -16 0
-407 -17 0
-407 -28 0
-407 -29 0
-407 -33 0
-407 -34 0
-407 -37 0
-407 -38 0
-407 -39 0
-407 -40 0
-407 -41 0
-407 -42 0
-407 -44 0
-407 -46 0
-407 -47 0
-407 -48 0
-407 -50 0
-407 -51 0
-407 -56 0
-407 -59 0
-407 -60 0
-407 -61 0
-407 -64 0
-407 -65 0
-407 -76 0
-407 -77 0
-407 -81 0
-407 -82 0
-407 -85 0
-407 -86 0
-407 -87 0
-407 -88 0
-407 -89 0
-407 -90 0
-407 -92 0
-407 -94 0
-407 -95 0
-407 -96 0
407 2 3 8 11 12 13 16 17 28 29 33 34 37 38 39 40 41 42 44 46 47 48 50 51 56 59 60 61 64 65 76 77 81 82 85 86 87 88 89 90 92 94 95 96 0
-408 -404 0
-408 -405 0
-408 -406 0
-408 -407 0
408 404 405 406 407 0
-409 13 0
-409 14 0
-409 18 0
-409 19 0
409 -13 -14 -18 -19 0
-410 61 0
-410 62 0
-410 66 0
-410 67 0
410 -61 -62 -66 -67 0
-411 -409 0
-411 -410 0
411 409 410 0
-408 -411 0
-412 -1 0
-412 -7 0
-412 -20 0
-412 -23 0
-412 -24 0
-412 -27 0
-412 -32 0
-412 -49 0
-412 -55 0
-412 -68 0
-412 -71 0
-412 -72 0
-412 -75 0
-412 -80 0
412 1 7 20 23 24 27 32 49 55 68 71 72 75 80 0
-413 -4 0
-413 -5 0
-413 -6 0
-413 -18 0
-413 -19 0
-413 -21 0
-413 -22 0
-413 -25 0
-413 -26 0
-413 -30 0
-413 -31 0
-413 -52 0
-413 -53 0
-413 -54 0
-413 -66 0
-413 -67 0
-413 -69 0
-413 -70 0
-413 -73 0
-413 -74 0
-413 -78 0
-413 -79 0
413 4 5 6 18 19 21 22 25 26 30 31 52 53 54 66 67 69 70 73 74 78 79 0
-414 -10 0
-414 -15 0
-414 -36 0
-414 -44 0
-414 -45 0
-414 -58 0
-414 -63 0
-414 -84 0
-414 -92 0
-414 -93 0
414 10 15 36 44 45 58 63 84 92 93 0
-415 -2 0
-415 -3 0
-415 -8 0
-415 -9 0
-415 -11 0
-415 -12 0
-415 -13 0
-415 -14 0
-415 -16 0
-415 -17 0
-415 -28 0
-415 -29 0
-415 -33 0
-415 -34 0
-415 -35 0
-415 -37 0
-415 -38 0
-415 -39 0
-415 -40 0
-415 -41 0
-415 -42 0
-415 -43 0
-415 -46 0
-415 -47 0
-415 -48 0
-415 -50 0
-415 -51 0
-415 -56 0
-415 -57 0
-415 -59 0
-415 -60 0
-415 -61 0
-415 -62 0
-415 -64 0
-415 -65 0
-415 -76 0
-415 -77 0
-415 -81 0
-415 -82 0
-415 -83 0
-415 -85 0
-415 -86 0
-415 -87 0
-415 -88 0
-415 -89 0
-415 -90 0
-415 -91 0
-415 -94 0
-415 -95 0
-415 -96 0
415 2 3 8 9 11 12 13 14 16 17 28 29 33 34 35 37 38 39 40 41 42 43 46 47 48 50 51 56 57 59 60 61 62 64 65 76 77 81 82 83 85 86 87 88 89 90 91 94 95 96 0
-416 -412 0
-416 -413 0
-416 -414 0
-416 -415 0
416 412 413 414 415 0
-417 14 0
-417 15 0
-417 19 0
-417 20 0
417 -14 -15 -19 -20 0
-418 62 0
-418 63 0
-418 67 0
-418 68 0
418 -62 -63 -67 -68 0
-419 -417 0
-419 -418 0
419 417 418 0
-416 -419 0
-420 -1 0
-420 -4 0
-420 -5 0
-420 -6 0
-420 -7 0
-420 -21 0
-420 -22 0
-420 -23 0
-420 -25 0
-420 -26 0
-420 -27 0
-420 -30 0
-420 -31 0
-420 -32 0
-420 -49 0
-420 -52 0
-420 -53 0
-420 -54 0
-420 -55 0
-420 -69 0
-420 -70 0
-420 -71 0
-420 -73 0
-420 -74 0
-420 -75 0
-420 -78 0
-420 -79 0
-420 -80 0
420 1 4 5 6 7 21 22 23 25 26 27 30 31 32 49 52 53 54 55 69 70 71 73 74 75 78 79 80 0
-421 -18 0
-421 -19 0
-421 -20 0
-421 -24 0
-421 -66 0
-421 -67 0
-421 -68 0
-421 -72 0
421 18 19 20 24 66 67 68 72 0
-422 -2 0
-422 -3 0
-422 -11 0
-422 -12 0
-422 -16 0
-422 -17 0
-422 -28 0
-422 -29 0
-422 -33 0
-422 -37 0
-422 -38 0
-422 -39 0
-422 -40 0
-422 -41 0
-422 -46 0
-422 -47 0
-422 -48 0
-422 -50 0
-422 -51 0
-422 -59 0
-422 -60 0
-422 -64 0
-422 -65 0
-422 -76 0
-422 -77 0
-422 -81 0
-422 -85 0
-422 -86 0
-422 -87 0
-422 -88 0
-422 -89 0
-422 -94 0
-422 -95 0
-422 -96 0
422 2 3 11 12 16 17 28 29 33 37 38 39 40 41 46 47 48 50 51 59 60 64 65 76 77 81 85 86 87 88 89 94 95 96 0
-423 -8 0
-423 -9 0
-423 -10 0
-423 -13 0
-423 -14 0
-423 -15 0
-423 -34 0
-423 -35 0
-423 -36 0
-423 -42 0
-423 -43 0
-423 -44 0
-423 -45 0
-423 -56 0
-423 -57 0
-423 -58 0
-423 -61 0
-423 -62 0
-423 -63 0
-423 -82 0
-423 -83 0
-423 -84 0
-423 -90 0
-423 -91 0
-423 -92 0
-423 -93 0
423 8 9 10 13 14 15 34 35 36 42 43 44 45 56 57 58 61 62 63 82 83 84 90 91 92 93 0
-424 -420 0
-424 -421 0
-424 -422 0
-424 -423 0
424 420 421 422 423 0
-425 13 0
-425 16 0
-425 18 0
-425 21 0
425 -13 -16 -18 -21 0
-426 61 0
-426 64 0
-426 66 0
-426 69 0
426 -61 -64 -66 -69 0
-427 -425 0
-427 -426 0
427 425 426 0
-424 -427 0
-428 -1 0
-428 -4 0
-428 -5 0
-428 -6 0
-428 -7 0
-428 -24 0
-428 -25 0
-428 -26 0
-428 -27 0
-428 -30 0
-428 -31 0
-428 -32 0
-428 -49 0
-428 -52 0
-428 -53 0
-428 -54 0
-428 -55 0
-428 -72 0
-428 -73 0
-428 -74 0
-428 -75 0
-428 -78 0
-428 -79 0
-428 -80 0
428 1 4 5 6 7 24 25 26 27 30 31 32 49 52 53 54 55 72 73 74 75 78 79 80 0
-429 -18 0
-429 -19 0
-429 -20 0
-429 -21 0
-429 -22 0
-429 -23 0
-429 -66 0
-429 -67 0
-429 -68 0
-429 -69 0
-429 -70 0
-429 -71 0
429 18 19 20 21 22 23 66 67 68 69 70 71 0
-430 -2 0
-430 -3 0
-430 -12 0
-430 -17 0
-430 -28 0
-430 -29 0
-430 -33 0
-430 -38 0
-430 -39 0
-430 -40 0
-430 -41 0
-430 -47 0
-430 -48 0
-430 -50 0
-430 -51 0
-430 -60 0
-430 -65 0
-430 -76 0
-430 -77 0
-430 -81 0
-430 -86 0
-430 -87 0
-430 -88 0
-430 -89 0
-430 -95 0
-430 -96 0
430 2 3 12 17 28 29 33 38 39 40 41 47 48 50 51 60 65 76 77 81 86 87 88 89 95 96 0
-431 -8 0
-431 -9 0
-431 -10 0
-431 -11 0
-431 -13 0
-431 -14 0
-431 -15 0
-431 -16 0
-431 -34 0
-431 -35 0
-431 -36 0
-431 -37 0
-431 -42 0
-431 -43 0
-431 -44 0
-431 -45 0
-431 -46 0
-431 -56 0
-431 -57 0
-431 -58 0
-431 -59 0
-431 -61 0
-431 -62 0
-431 -63 0
-431 -64 0
-431 -82 0
-431 -83 0
-431 -84 0
-431 -85 0
-431 -90 0
-431 -91 0
-431 -92 0
-431 -93 0
-431 -94 0
431 8 9 10 11 13 14 15 16 34 35 36 37 42 43 44 45 46 56 57 58 59 61 62 63 64 82 83 84 85 90 91 92 93 94 0
-432 -428 0
-432 -429 0
-432 -430 0
-432 -431 0
432 428 429 430 431 0
-433 16 0
-433 17 0
-433 21 0
-433 25 0
433 -16 -17 -21 -25 0
-434 64 0
-434 65 0
-434 69 0
-434 73 0
434 -64 -65 -69 -73 0
-435 -433 0
-435 -434 0
435 433 434 0
-432 -435 0
-436 -1 0
-436 -5 0
-436 -6 0
-436 -7 0
-436 -18 0
-436 -19 0
-436 -20 0
-436 -21 0
-436 -22 0
-436 -23 0
-436 -24 0
-436 -25 0
-436 -26 0
-436 -27 0
-436 -30 0
-436 -31 0
-436 -32 0
-436 -49 0
-436 -53 0
-436 -54 0
-436 -55 0
-436 -66 0
-436 -67 0
-436 -68 0
-436 -69 0
-436 -70 0
-436 -71 0
-436 -72 0
-436 -73 0
-436 -74 0
-436 -75 0
-436 -78 0
-436 -79 0
-436 -80 0
436 1 5 6 7 18 19 20 21 22 23 24 25 26 27 30 31 32 49 53 54 55 66 67 68 69 70 71 72 73 74 75 78 79 80 0
-437 -4 0
-437 -52 0
437 4 52 0
-438 -3 0
-438 -13 0
-438 -14 0
-438 -15 0
-438 -16 0
-438 -17 0
-438 -29 0
-438 -51 0
-438 -61 0
-438 -62 0
-438 -63 0
-438 -64 0
-438 -65 0
-438 -77 0
438 3 13 14 15 16 17 29 51 61 62 63 64 65 77 0
-439 -2 0
-439 -8 0
-439 -9 0
-439 -10 0
-439 -11 0
-439 -12 0
-439 -28 0
-439 -33 0
-439 -34 0
-439 -35 0
-439 -36 0
-439 -37 0
-439 -38 0
-439 -39 0
-439 -40 0
-439 -41 0
-439 -42 0
-439 -43 0
-439 -44 0
-439 -45 0
-439 -46 0
-439 -47 0
-439 -48 0
-439 -50 0
-439 -56 0
-439 -57 0
-439 -58 0
-439 -59 0
-439 -60 0
-439 -76 0
-439 -81 0
-439 -82 0
-439 -83 0
-439 -84 0
-439 -85 0
-439 -86 0
-439 -87 0
-439 -88 0
-439 -89 0
-439 -90 0
-439 -91 0
-439 -92 0
-439 -93 0
-439 -94 0
-439 -95 0
-439 -96 0
439 2 8 9 10 11 12 28 33 34 35 36 37 38 39 40 41 42 43 44 45 46 47 48 50 56 57 58 59 60 76 81 82 83 84 85 86 87 88 89 90 91 92 93 94 95 96 0
-440 -436 0
-440 -437 0
-440 -438 0
-440 -439 0
440 436 437 438 439 0
-441 2 0
-441 3 0
-441 4 0
-441 5 0
441 -2 -3 -4 -5 0
-442 50 0
-442 51 0
-442 52 0
-442 53 0
442 -50 -51 -52 -53 0
-443 -441 0
-443 -442 0
443 441 442 0
-440 -443 0
-444 -2 0
-444 -3 0
-444 -4 0
-444 -5 0
-444 -6 0
-444 -7 0
-444 -28 0
-444 -29 0
-444 -30 0
-444 -31 0
-444 -32 0
-444 -33 0
-444 -39 0
-444 -40 0
-444 -41 0
-444 -48 0
-444 -50 0
-444 -51 0
-444 -52 0
-444 -53 0
-444 -54 0
-444 -55 0
-444 -76 0
-444 -77 0
-444 -78 0
-444 -79 0
-444 -80 0
-444 -81 0
-444 -87 0
-444 -88 0
-444 -89 0
-444 -96 0
444 2 3 4 5 6 7 28 29 30 31 32 33 39 40 41 48 50 51 52 53 54 55 76 77 78 79 80 81 87 88 89 96 0
-445 -1 0
-445 -8 0
-445 -9 0
-445 -10 0
-445 -11 0
-445 -12 0
-445 -13 0
-445 -14 0
-445 -15 0
-445 -16 0
-445 -17 0
-445 -18 0
-445 -19 0
-445 -20 0
-445 -21 0
-445 -22 0
-445 -23 0
-445 -24 0
-445 -25 0
-445 -26 0
-445 -27 0
-445 -34 0
-445 -35 0
-445 -36 0
-445 -37 0
-445 -38 0
-445 -42 0
-445 -43 0
-445 -44 0
-445 -45 0
-445 -46 0
-445 -47 0
-445 -49 0
-445 -56 0
-445 -57 0
-445 -58 0
-445 -59 0
-445 -60 0
-445 -61 0
-445 -62 0
-445 -63 0
-445 -64 0
-445 -65 0
-445 -66 0
-445 -67 0
-445 -68 0
-445 -69 0
-445 -70 0
-445 -71 0
-445 -72 0
-445 -73 0
-445 -74 0
-445 -75 0
-445 -82 0
-445 -83 0
-445 -84 0
-445 -85 0
-445 -86 0
-445 -90 0
-445 -91 0
-445 -92 0
-445 -93 0
-445 -94 0
-445 -95 0
445 1 8 9 10 11 12 13 14 15 16 17 18 19 20 21 22 23 24 25 26 27 34 35 36 37 38 42 43 44 45 46 47 49 56 57 58 59 60 61 62 63 64 65 66 67 68 69 70 71 72 73 74 75 82 83 84 85 86 90 91 92 93 94 95 0
-446 -444 0
-446 -445 0
446 444 445 0
-447 1 0
-447 7 0
447 -1 -7 0
-448 12 0
-448 28 0
448 -12 -28 0
-449 17 0
-449 29 0
449 -17 -29 0
-450 25 0
-450 30 0
450 -25 -30 0
-451 26 0
-451 31 0
451 -26 -31 0
-452 27 0
-452 32 0
452 -27 -32 0
-453 38 0
-453 39 0
453 -38 -39 0
-454 47 0
-454 48 0
454 -47 -48 0
-455 49 0
-455 55 0
455 -49 -55 0
-456 60 0
-456 76 0
456 -60 -76 0
-457 65 0
-457 77 0
457 -65 -77 0
-458 73 0
-458 78 0
458 -73 -78 0
-459 74 0
-459 79 0
459 -74 -79 0
-460 75 0
-460 80 0
460 -75 -80 0
-461 86 0
-461 87 0
461 -86 -87 0
-462 95 0
-462 96 0
462 -95 -96 0
-463 -447 0
-463 -448 0
-463 -449 0
-463 -450 0
-463 -451 0
-463 -452 0
-463 -453 0
-463 -454 0
-463 -455 0
-463 -456 0
-463 -457 0
-463 -458 0
-463 -459 0
-463 -460 0
-463 -461 0
-463 -462 0
463 447 448 449 450 451 452 453 454 455 456 457 458 459 460 461 462 0
-446 -463 0
-464 -6 0
-464 -7 0
-464 -31 0
-464 -32 0
-464 -54 0
-464 -55 0
-464 -79 0
-464 -80 0
464 6 7 31 32 54 55 79 80 0
-465 -2 0
-465 -3 0
-465 -4 0
-465 -5 0
-465 -28 0
-465 -29 0
-465 -30 0
-465 -33 0
-465 -39 0
-465 -40 0
-465 -41 0
-465 -48 0
-465 -50 0
-465 -51 0
-465 -52 0
-465 -53 0
-465 -76 0
-465 -77 0
-465 -78 0
-465 -81 0
-465 -87 0
-465 -88 0
-465 -89 0
-465 -96 0
465 2 3 4 5 28 29 30 33 39 40 41 48 50 51 52 53 76 77 78 81 87 88 89 96 0
-466 -1 0
-466 -9 0
-466 -10 0
-466 -14 0
-466 -15 0
-466 -19 0
-466 -20 0
-466 -22 0
-466 -23 0
-466 -24 0
-466 -26 0
-466 -27 0
-466 -35 0
-466 -36 0
-466 -43 0
-466 -45 0
-466 -49 0
-466 -57 0
-466 -58 0
-466 -62 0
-466 -63 0
-466 -67 0
-466 -68 0
-466 -70 0
-466 -71 0
-466 -72 0
-466 -74 0
-466 -75 0
-466 -83 0
-466 -84 0
-466 -91 0
-466 -93 0
466 1 9 10 14 15 19 20 22 23 24 26 27 35 36 43 45 49 57 58 62 63 67 68 70 71 72 74 75 83 84 91 93 0
-467 -8 0
-467 -11 0
-467 -12 0
-467 -13 0
-467 -16 0
-467 -17 0
-467 -18 0
-467 -21 0
-467 -25 0
-467 -34 0
-467 -37 0
-467 -38 0
-467 -42 0
-467 -44 0
-467 -46 0
-467 -47 0
-467 -56 0
-467 -59 0
-467 -60 0
-467 -61 0
-467 -64 0
-467 -65 0
-467 -66 0
-467 -69 0
-467 -73 0
-467 -82 0
-467 -85 0
-467 -86 0
-467 -90 0
-467 -92 0
-467 -94 0
-467 -95 0
467 8 11 12 13 16 17 18 21 25 34 37 38 42 44 46 47 56 59 60 61 64 65 66 69 73 82 85 86 90 92 94 95 0
-468 -464 0
-468 -465 0
-468 -466 0
-468 -467 0
468 464 465 466 467 0
-469 25 0
-469 26 0
-469 30 0
-469 31 0
469 -25 -26 -30 -31 0
-470 73 0
-470 74 0
-470 78 0
-470 79 0
470 -73 -74 -78 -79 0
-471 -469 0
-471 -470 0
471 469 470 0
-468 -471 0
-472 -7 0
-472 -32 0
-472 -55 0
-472 -80 0
472 7 32 55 80 0
-473 -2 0
-473 -3 0
-473 -4 0
-473 -5 0
-473 -6 0
-473 -28 0
-473 -29 0
-473 -30 0
-473 -31 0
-473 -33 0
-473 -39 0
-473 -40 0
-473 -41 0
-473 -48 0
-473 -50 0
-473 -51 0
-473 -52 0
-473 -53 0
-473 -54 0
-473 -76 0
-473 -77 0
-473 -78 0
-473 -79 0
-473 -81 0
-473 -87 0
-473 -88 0
-473 -89 0
-473 -96 0
473 2 3 4 5 6 28 29 30 31 33 39 40 41 48 50 51 52 53 54 76 77 78 79 81 87 88 89 96 0
-474 -1 0
-474 -10 0
-474 -15 0
-474 -20 0
-474 -23 0
-474 -24 0
-474 -27 0
-474 -36 0
-474 -44 0
-474 -45 0
-474 -49 0
-474 -58 0
-474 -63 0
-474 -68 0
-474 -71 0
-474 -72 0
-474 -75 0
-474 -84 0
-474 -92 0
-474 -93 0
474 1 10 15 20 23 24 27 36 44 45 49 58 63 68 71 72 75 84 92 93 0
-475 -8 0
-475 -9 0
-475 -11 0
-475 -12 0
-475 -13 0
-475 -14 0
-475 -16 0
-475 -17 0
-475 -18 0
-475 -19 0
-475 -21 0
-475 -22 0
-475 -25 0
-475 -26 0
-475 -34 0
-475 -35 0
-475 -37 0
-475 -38 0
-475 -42 0
-475 -43 0
-475 -46 0
-475 -47 0
-475 -56 0
-475 -57 0
-475 -59 0
-475 -60 0
-475 -61 0
-475 -62 0
-475 -64 0
-475 -65 0
-475 -66 0
-475 -67 0
-475 -69 0
-475 -70 0
-475 -73 0
-475 -74 0
-475 -82 0
-475 -83 0
-475 -85 0
-475 -86 0
-475 -90 0
-475 -91 0
-475 -94 0
-475 -95 0
475 8 9 11 12 13 14 16 17 18 19 21 22 25 26 34 35 37 38 42 43 46 47 56 57 59 60 61 62 64 65 66 67 69 70 73 74 82 83 85 86 90 91 94 95 0
-476 -472 0
-476 -473 0
-476 -474 0
-476 -475 0
476 472 473 474 475 0
-477 26 0
-477 27 0
-477 31 0
-477 32 0
477 -26 -27 -31 -32 0
-478 74 0
-478 75 0
-478 79 0
-478 80 0
478 -74 -75 -79 -80 0
-479 -477 0
-479 -478 0
479 477 478 0
-476 -479 0
-480 -3 0
-480 -5 0
-480 -6 0
-480 -7 0
-480 -29 0
-480 -30 0
-480 -31 0
-480 -32 0
-480 -51 0
-480 -53 0
-480 -54 0
-480 -55 0
-480 -77 0
-480 -78 0
-480 -79 0
-480 -80 0
480 3 5 6 7 29 30 31 32 51 53 54 55 77 78 79 80 0
-481 -2 0
-481 -4 0
-481 -28 0
-481 -33 0
-481 -39 0
-481 -40 0
-481 -41 0
-481 -48 0
-481 -50 0
-481 -52 0
-481 -76 0
-481 -81 0
-481 -87 0
-481 -88 0
-481 -89 0
-481 -96 0
481 2 4 28 33 39 40 41 48 50 52 76 81 87 88 89 96 0
-482 -1 0
-482 -13 0
-482 -14 0
-482 -15 0
-482 -16 0
-482 -17 0
-482 -18 0
-482 -19 0
-482 -20 0
-482 -21 0
-482 -22 0
-482 -23 0
-482 -24 0
-482 -25 0
-482 -26 0
-482 -27 0
-482 -49 0
-482 -61 0
-482 -62 0
-482 -63 0
-482 -64 0
-482 -65 0
-482 -66 0
-482 -67 0
-482 -68 0
-482 -69 0
-482 -70 0
-482 -71 0
-482 -72 0
-482 -73 0
-482 -74 0
-482 -75 0
482 1 13 14 15 16 17 18 19 20 21 22 23 24 25 26 27 49 61 62 63 64 65 66 67 68 69 70 71 72 73 74 75 0
-483 -8 0
-483 -9 0
-483 -10 0
-483 -11 0
-483 -12 0
-483 -34 0
-483 -35 0
-483 -36 0
-483 -37 0
-483 -38 0
-483 -42 0
-483 -43 0
-483 -44 0
-483 -45 0
-483 -46 0
-483 -47 0
-483 -56 0
-483 -57 0
-483 -58 0
-483 -59 0
-483 -60 0
-483 -82 0
-483 -83 0
-483 -84 0
-483 -85 0
-483 -86 0
-483 -90 0
-483 -91 0
-483 -92 0
-483 -93 0
-483 -94 0
-483 -95 0
483 8 9 10 11 12 34 35 36 37 38 42 43 44 45 46 47 56 57 58 59 60 82 83 84 85 86 90 91 92 93 94 95 0
-484 -480 0
-484 -481 0
-484 -482 0
-484 -483 0
484 480 481 482 483 0
-485 12 0
-485 17 0
-485 28 0
-485 29 0
485 -12 -17 -28 -29 0
-486 60 0
-486 65 0
-486 76 0
-486 77 0
486 -60 -65 -76 -77 0
-487 -485 0
-487 -486 0
487 485 486 0
-484 -487 0
-488 -4 0
-488 -5 0
-488 -6 0
-488 -7 0
-488 -30 0
-488 -31 0
-488 -32 0
-488 -52 0
-488 -53 0
-488 -54 0
-488 -55 0
-488 -78 0
-488 -79 0
-488 -80 0
488 4 5 6 7 30 31 32 52 53 54 55 78 79 80 0
-489 -2 0
-489 -3 0
-489 -28 0
-489 -29 0
-489 -33 0
-489 -39 0
-489 -40 0
-489 -41 0
-489 -48 0
-489 -50 0
-489 -51 0
-489 -76 0
-489 -77 0
-489 -81 0
-489 -87 0
-489 -88 0
-489 -89 0
-489 -96 0
489 2 3 28 29 33 39 40 41 48 50 51 76 77 81 87 88 89 96 0
-490 -1 0
-490 -18 0
-490 -19 0
-490 -20 0
-490 -21 0
-490 -22 0
-490 -23 0
-490 -24 0
-490 -25 0
-490 -26 0
-490 -27 0
-490 -49 0
-490 -66 0
-490 -67 0
-490 -68 0
-490 -69 0
-490 -70 0
-490 -71 0
-490 -72 0
-490 -73 0
-490 -74 0
-490 -75 0
490 1 18 19 20 21 22 23 24 25 26 27 49 66 67 68 69 70 71 72 73 74 75 0
-491 -8 0
-491 -9 0
-491 -10 0
-491 -11 0
-491 -12 0
-491 -13 0
-491 -14 0
-491 -15 0
-491 -16 0
-491 -17 0
-491 -34 0
-491 -35 0
-491 -36 0
-491 -37 0
-491 -38 0
-491 -42 0
-491 -43 0
-491 -44 0
-491 -45 0
-491 -46 0
-491 -47 0
-491 -56 0
-491 -57 0
-491 -58 0
-491 -59 0
-491 -60 0
-491 -61 0
-491 -62 0
-491 -63 0
-491 -64 0
-491 -65 0
-491 -82 0
-491 -83 0
-491 -84 0
-491 -85 0
-491 -86 0
-491 -90 0
-491 -91 0
-491 -92 0
-491 -93 0
-491 -94 0
-491 -95 0
491 8 9 10 11 12 13 14 15 16 17 34 35 36 37 38 42 43 44 45 46 47 56 57 58 59 60 61 62 63 64 65 82 83 84 85 86 90 91 92 93 94 95 0
-492 -488 0
-492 -489 0
-492 -490 0
-492 -491 0
492 488 489 490 491 0
-493 17 0
-493 25 0
-493 29 0
-493 30 0
493 -17 -25 -29 -30 0
-494 65 0
-494 73 0
-494 77 0
-494 78 0
494 -65 -73 -77 -78 0
-495 -493 0
-495 -494 0
495 493 494 0
-492 -495 0
-496 -8 0
-496 -9 0
-496 -10 0
-496 -11 0
-496 -12 0
-496 -13 0
-496 -14 0
-496 -15 0
-496 -16 0
-496 -17 0
-496 -18 0
-496 -19 0
-496 -20 0
-496 -21 0
-496 -22 0
-496 -23 0
-496 -24 0
-496 -25 0
-496 -26 0
-496 -27 0
-496 -28 0
-496 -29 0
-496 -30 0
-496 -31 0
-496 -32 0
-496 -34 0
-496 -35 0
-496 -36 0
-496 -37 0
-496 -38 0
-496 -39 0
-496 -42 0
-496 -43 0
-496 -44 0
-496 -45 0
-496 -46 0
-496 -47 0
-496 -48 0
-496 -56 0
-496 -57 0
-496 -58 0
-496 -59 0
-496 -60 0
-496 -61 0
-496 -62 0
-496 -63 0
-496 -64 0
-496 -65 0
-496 -66 0
-496 -67 0
-496 -68 0
-496 -69 0
-496 -70 0
-496 -71 0
-496 -72 0
-496 -73 0
-496 -74 0
-496 -75 0
-496 -76 0
-496 -77 0
-496 -78 0
-496 -79 0
-496 -80 0
-496 -82 0
-496 -83 0
-496 -84 0
-496 -85 0
-496 -86 0
-496 -87 0
-496 -90 0
-496 -91 0
-496 -92 0
-496 -93 0
-496 -94 0
-496 -95 0
-496 -96 0
496 8 9 10 11 12 13 14 15 16 17 18 19 20 21 22 23 24 25 26 27 28 29 30 31 32 34 35 36 37 38 39 42 43 44 45 46 47 48 56 57 58 59 60 61 62 63 64 65 66 67 68 69 70 71 72 73 74 75 76 77 78 79 80 82 83 84 85 86 87 90 91 92 93 94 95 96 0
-497 -1 0
-497 -2 0
-497 -3 0
-497 -4 0
-497 -5 0
-497 -6 0
-497 -7 0
-497 -33 0
-497 -40 0
-497 -41 0
-497 -49 0
-497 -50 0
-497 -51 0
-497 -52 0
-497 -53 0
-497 -54 0
-497 -55 0
-497 -81 0
-497 -88 0
-497 -89 0
497 1 2 3 4 5 6 7 33 40 41 49 50 51 52 53 54 55 81 88 89 0
-498 -496 0
-498 -497 0
498 496 497 0
-499 1 0
-499 27 0
499 -1 -27 0
-500 2 0
-500 28 0
500 -2 -28 0
-501 3 0
-501 29 0
501 -3 -29 0
-502 5 0
-502 30 0
502 -5 -30 0
-503 6 0
-503 31 0
503 -6 -31 0
-504 7 0
-504 32 0
504 -7 -32 0
-505 33 0
-505 39 0
505 -33 -39 0
-506 41 0
-506 48 0
506 -41 -48 0
-507 49 0
-507 75 0
507 -49 -75 0
-508 50 0
-508 76 0
508 -50 -76 0
-509 51 0
-509 77 0
509 -51 -77 0
-510 53 0
-510 78 0
510 -53 -78 0
-511 54 0
-511 79 0
511 -54 -79 0
-512 55 0
-512 80 0
512 -55 -80 0
-513 81 0
-513 87 0
513 -81 -87 0
-514 89 0
-514 96 0
514 -89 -96 0
-515 -499 0
-515 -500 0
-515 -501 0
-515 -502 0
-515 -503 0
-515 -504 0
-515 -505 0
-515 -506 0
-515 -507 0
-515 -508 0
-515 -509 0
-515 -510 0
-515 -511 0
-515 -512 0
-515 -513 0
-515 -514 0
515 499 500 501 502 503 504 505 506 507 508 509 510 511 512 513 514 0
-498 -515 0
-516 -9 0
-516 -10 0
-516 -14 0
-516 -15 0
-516 -19 0
-516 -20 0
-516 -22 0
-516 -23 0
-516 -24 0
-516 -26 0
-516 -27 0
-516 -31 0
-516 -32 0
-516 -35 0
-516 -36 0
-516 -43 0
-516 -45 0
-516 -57 0
-516 -58 0
-516 -62 0
-516 -63 0
-516 -67 0
-516 -68 0
-516 -70 0
-516 -71 0
-516 -72 0
-516 -74 0
-516 -75 0
-516 -79 0
-516 -80 0
-516 -83 0
-516 -84 0
-516 -91 0
-516 -93 0
516 9 10 14 15 19 20 22 23 24 26 27 31 32 35 36 43 45 57 58 62 63 67 68 70 71 72 74 75 79 80 83 84 91 93 0
-517 -8 0
-517 -11 0
-517 -12 0
-517 -13 0
-517 -16 0
-517 -17 0
-517 -18 0
-517 -21 0
-517 -25 0
-517 -28 0
-517 -29 0
-517 -30 0
-517 -34 0
-517 -37 0
-517 -38 0
-517 -39 0
-517 -42 0
-517 -44 0
-517 -46 0
-517 -47 0
-517 -48 0
-517 -56 0
-517 -59 0
-517 -60 0
-517 -61 0
-517 -64 0
-517 -65 0
-517 -66 0
-517 -69 0
-517 -73 0
-517 -76 0
-517 -77 0
-517 -78 0
-517 -82 0
-517 -85 0
-517 -86 0
-517 -87 0
-517 -90 0
-517 -92 0
-517 -94 0
-517 -95 0
-517 -96 0
517 8 11 12 13 16 17 18 21 25 28 29 30 34 37 38 39 42 44 46 47 48 56 59 60 61 64 65 66 69 73 76 77 78 82 85 86 87 90 92 94 95 96 0
-518 -1 0
-518 -6 0
-518 -7 0
-518 -49 0
-518 -54 0
-518 -55 0
518 1 6 7 49 54 55 0
-519 -2 0
-519 -3 0
-519 -4 0
-519 -5 0
-519 -33 0
-519 -40 0
-519 -41 0
-519 -50 0
-519 -51 0
-519 -52 0
-519 -53 0
-519 -81 0
-519 -88 0
-519 -89 0
519 2 3 4 5 33 40 41 50 51 52 53 81 88 89 0
-520 -516 0
-520 -517 0
-520 -518 0
-520 -519 0
520 516 517 518 519 0
-521 5 0
-521 6 0
-521 30 0
-521 31 0
521 -5 -6 -30 -31 0
-522 53 0
-522 54 0
-522 78 0
-522 79 0
522 -53 -54 -78 -79 0
-523 -521 0
-523 -522 0
523 521 522 0
-520 -523 0
-524 -10 0
-524 -15 0
-524 -20 0
-524 -23 0
-524 -24 0
-524 -27 0
-524 -32 0
-524 -36 0
-524 -44 0
-524 -45 0
-524 -58 0
-524 -63 0
-524 -68 0
-524 -71 0
-524 -72 0
-524 -75 0
-524 -80 0
-524 -84 0
-524 -92 0
-524 -93 0
524 10 15 20 23 24 27 32 36 44 45 58 63 68 71 72 75 80 84 92 93 0
-525 -8 0
-525 -9 0
-525 -11 0
-525 -12 0
-525 -13 0
-525 -14 0
-525 -16 0
-525 -17 0
-525 -18 0
-525 -19 0
-525 -21 0
-525 -22 0
-525 -25 0
-525 -26 0
-525 -28 0
-525 -29 0
-525 -30 0
-525 -31 0
-525 -34 0
-525 -35 0
-525 -37 0
-525 -38 0
-525 -39 0
-525 -42 0
-525 -43 0
-525 -46 0
-525 -47 0
-525 -48 0
-525 -56 0
-525 -57 0
-525 -59 0
-525 -60 0
-525 -61 0
-525 -62 0
-525 -64 0
-525 -65 0
-525 -66 0
-525 -67 0
-525 -69 0
-525 -70 0
-525 -73 0
-525 -74 0
-525 -76 0
-525 -77 0
-525 -78 0
-525 -79 0
-525 -82 0
-525 -83 0
-525 -85 0
-525 -86 0
-525 -87 0
-525 -90 0
-525 -91 0
-525 -94 0
-525 -95 0
-525 -96 0
525 8 9 11 12 13 14 16 17 18 19 21 22 25 26 28 29 30 31 34 35 37 38 39 42 43 46 47 48 56 57 59 60 61 62 64 65 66 67 69 70 73 74 76 77 78 79 82 83 85 86 87 90 91 94 95 96 0
-526 -1 0
-526 -7 0
-526 -49 0
-526 -55 0
526 1 7 49 55 0
-527 -2 0
-527 -3 0
-527 -4 0
-527 -5 0
-527 -6 0
-527 -33 0
-527 -40 0
-527 -41 0
-527 -50 0
-527 -51 0
-527 -52 0
-527 -53 0
-527 -54 0
-527 -81 0
-527 -88 0
-527 -89 0
527 2 3 4 5 6 33 40 41 50 51 52 53 54 81 88 89 0
-528 -524 0
-528 -525 0
-528 -526 0
-528 -527 0
528 524 525 526 527 0
-529 6 0
-529 7 0
-529 31 0
-529 32 0
529 -6 -7 -31 -32 0
-530 54 0
-530 55 0
-530 79 0
-530 80 0
530 -54 -55 -79 -80 0
-531 -529 0
-531 -530 0
531 529 530 0
-528 -531 0
-532 -13 0
-532 -14 0
-532 -15 0
-532 -16 0
-532 -17 0
-532 -18 0
-532 -19 0
-532 -20 0
-532 -21 0
-532 -22 0
-532 -23 0
-532 -24 0
-532 -25 0
-532 -26 0
-532 -27 0
-532 -29 0
-532 -30 0
-532 -31 0
-532 -32 0
-532 -61 0
-532 -62 0
-532 -63 0
-532 -64 0
-532 -65 0
-532 -66 0
-532 -67 0
-532 -68 0
-532 -69 0
-532 -70 0
-532 -71 0
-532 -72 0
-532 -73 0
-532 -74 0
-532 -75 0
-532 -77 0
-532 -78 0
-532 -79 0
-532 -80 0
532 13 14 15 16 17 18 19 20 21 22 23 24 25 26 27 29 30 31 32 61 62 63 64 65 66 67 68 69 70 71 72 73 74 75 77 78 79 80 0
-533 -8 0
-533 -9 0
-533 -10 0
-533 -11 0
-533 -12 0
-533 -28 0
-533 -34 0
-533 -35 0
-533 -36 0
-533 -37 0
-533 -38 0
-533 -39 0
-533 -42 0
-533 -43 0
-533 -44 0
-533 -45 0
-533 -46 0
-533 -47 0
-533 -48 0
-533 -56 0
-533 -57 0
-533 -58 0
-533 -59 0
-533 -60 0
-533 -76 0
-533 -82 0
-533 -83 0
-533 -84 0
-533 -85 0
-533 -86 0
-533 -87 0
-533 -90 0
-533 -91 0
-533 -92 0
-533 -93 0
-533 -94 0
-533 -95 0
-533 -96 0
533 8 9 10 11 12 28 34 35 36 37 38 39 42 43 44 45 46 47 48 56 57 58 59 60 76 82 83 84 85 86 87 90 91 92 93 94 95 96 0
-534 -1 0
-534 -3 0
-534 -5 0
-534 -6 0
-534 -7 0
-534 -49 0
-534 -51 0
-534 -53 0
-534 -54 0
-534 -55 0
534 1 3 5 6 7 49 51 53 54 55 0
-535 -2 0
-535 -4 0
-535 -33 0
-535 -40 0
-535 -41 0
-535 -50 0
-535 -52 0
-535 -81 0
-535 -88 0
-535 -89 0
535 2 4 33 40 41 50 52 81 88 89 0
-536 -532 0
-536 -533 0
-536 -534 0
-536 -535 0
536 532 533 534 535 0
-537 2 0
-537 3 0
-537 28 0
-537 29 0
537 -2 -3 -28 -29 0
-538 50 0
-538 51 0
-538 76 0
-538 77 0
538 -50 -51 -76 -77 0
-539 -537 0
-539 -538 0
539 537 538 0
-536 -539 0
-540 -18 0
-540 -19 0
-540 -20 0
-540 -21 0
-540 -22 0
-540 -23 0
-540 -24 0
-540 -25 0
-540 -26 0
-540 -27 0
-540 -30 0
-540 -31 0
-540 -32 0
-540 -66 0
-540 -67 0
-540 -68 0
-540 -69 0
-540 -70 0
-540 -71 0
-540 -72 0
-540 -73 0
-540 -74 0
-540 -75 0
-540 -78 0
-540 -79 0
-540 -80 0
540 18 19 20 21 22 23 24 25 26 27 30 31 32 66 67 68 69 70 71 72 73 74 75 78 79 80 0
-541 -8 0
-541 -9 0
-541 -10 0
-541 -11 0
-541 -12 0
-541 -13 0
-541 -14 0
-541 -15 0
-541 -16 0
-541 -17 0
-541 -28 0
-541 -29 0
-541 -34 0
-541 -35 0
-541 -36 0
-541 -37 0
-541 -38 0
-541 -39 0
-541 -42 0
-541 -43 0
-541 -44 0
-541 -45 0
-541 -46 0
-541 -47 0
-541 -48 0
-541 -56 0
-541 -57 0
-541 -58 0
-541 -59 0
-541 -60 0
-541 -61 0
-541 -62 0
-541 -63 0
-541 -64 0
-541 -65 0
-541 -76 0
-541 -77 0
-541 -82 0
-541 -83 0
-541 -84 0
-541 -85 0
-541 -86 0
-541 -87 0
-541 -90 0
-541 -91 0
-541 -92 0
-541 -93 0
-541 -94 0
-541 -95 0
-541 -96 0
541 8 9 10 11 12 13 14 15 16 17 28 29 34 35 36 37 38 39 42 43 44 45 46 47 48 56 57 58 59 60 61 62 63 64 65 76 77 82 83 84 85 86 87 90 91 92 93 94 95 96 0
-542 -1 0
-542 -4 0
-542 -5 0
-542 -6 0
-542 -7 0
-542 -49 0
-542 -52 0
-542 -53 0
-542 -54 0
-542 -55 0
542 1 4 5 6 7 49 52 53 54 55 0
-543 -2 0
-543 -3 0
-543 -33 0
-543 -40 0
-543 -41 0
-543 -50 0
-543 -51 0
-543 -81 0
-543 -88 0
-543 -89 0
543 2 3 33 40 41 50 51 81 88 89 0
-544 -540 0
-544 -541 0
-544 -542 0
-544 -543 0
544 540 541 542 543 0
-545 3 0
-545 5 0
-545 29 0
-545 30 0
545 -3 -5 -29 -30 0
-546 51 0
-546 53 0
-546 77 0
-546 78 0
546 -51 -53 -77 -78 0
-547 -545 0
-547 -546 0
547 545 546 0
-544 -547 0
-548 -28 0
-548 -29 0
-548 -30 0
-548 -31 0
-548 -32 0
-548 -39 0
-548 -48 0
-548 -76 0
-548 -77 0
-548 -78 0
-548 -79 0
-548 -80 0
-548 -87 0
-548 -96 0
548 28 29 30 31 32 39 48 76 77 78 79 80 87 96 0
-549 -8 0
-549 -9 0
-549 -10 0
-549 -11 0
-549 -12 0
-549 -13 0
-549 -14 0
-549 -15 0
-549 -16 0
-549 -17 0
-549 -18 0
-549 -19 0
-549 -20 0
-549 -21 0
-549 -22 0
-549 -23 0
-549 -24 0
-549 -25 0
-549 -26 0
-549 -27 0
-549 -34 0
-549 -35 0
-549 -36 0
-549 -37 0
-549 -38 0
-549 -42 0
-549 -43 0
-549 -44 0
-549 -45 0
-549 -46 0
-549 -47 0
-549 -56 0
-549 -57 0
-549 -58 0
-549 -59 0
-549 -60 0
-549 -61 0
-549 -62 0
-549 -63 0
-549 -64 0
-549 -65 0
-549 -66 0
-549 -67 0
-549 -68 0
-549 -69 0
-549 -70 0
-549 -71 0
-549 -72 0
-549 -73 0
-549 -74 0
-549 -75 0
-549 -82 0
-549 -83 0
-549 -84 0
-549 -85 0
-549 -86 0
-549 -90 0
-549 -91 0
-549 -92 0
-549 -93 0
-549 -94 0
-549 -95 0
549 8 9 10 11 12 13 14 15 16 17 18 19 20 21 22 23 24 25 26 27 34 35 36 37 38 42 43 44 45 46 47 56 57 58 59 60 61 62 63 64 65 66 67 68 69 70 71 72 73 74 75 82 83 84 85 86 90 91 92 93 94 95 0
-550 -2 0
-550 -3 0
-550 -4 0
-550 -5 0
-550 -6 0
-550 -7 0
-550 -33 0
-550 -40 0
-550 -41 0
-550 -50 0
-550 -51 0
-550 -52 0
-550 -53 0
-550 -54 0
-550 -55 0
-550 -81 0
-550 -88 0
-550 -89 0
550 2 3 4 5 6 7 33 40 41 50 51 52 53 54 55 81 88 89 0
-551 -1 0
-551 -49 0
551 1 49 0
-552 -548 0
-552 -549 0
-552 -550 0
-552 -551 0
552 548 549 550 551 0
-553 1 0
-553 7 0
-553 27 0
-553 32 0
553 -1 -7 -27 -32 0
-554 49 0
-554 55 0
-554 75 0
-554 80 0
554 -49 -55 -75 -80 0
-555 -553 0
-555 -554 0
555 553 554 0
-552 -555 0
-556 -33 0
-556 -34 0
-556 -35 0
-556 -36 0
-556 -37 0
-556 -38 0
-556 -39 0
-556 -41 0
-556 -42 0
-556 -43 0
-556 -44 0
-556 -45 0
-556 -46 0
-556 -47 0
-556 -48 0
-556 -81 0
-556 -82 0
-556 -83 0
-556 -84 0
-556 -85 0
-556 -86 0
-556 -87 0
-556 -89 0
-556 -90 0
-556 -91 0
-556 -92 0
-556 -93 0
-556 -94 0
-556 -95 0
-556 -96 0
556 33 34 35 36 37 38 39 41 42 43 44 45 46 47 48 81 82 83 84 85 86 87 89 90 91 92 93 94 95 96 0
-557 -1 0
-557 -2 0
-557 -3 0
-557 -4 0
-557 -5 0
-557 -6 0
-557 -7 0
-557 -8 0
-557 -9 0
-557 -10 0
-557 -11 0
-557 -12 0
-557 -13 0
-557 -14 0
-557 -15 0
-557 -16 0
-557 -17 0
-557 -18 0
-557 -19 0
-557 -20 0
-557 -21 0
-557 -22 0
-557 -23 0
-557 -24 0
-557 -25 0
-557 -26 0
-557 -27 0
-557 -28 0
-557 -29 0
-557 -30 0
-557 -31 0
-557 -32 0
-557 -40 0
-557 -49 0
-557 -50 0
-557 -51 0
-557 -52 0
-557 -53 0
-557 -54 0
-557 -55 0
-557 -56 0
-557 -57 0
-557 -58 0
-557 -59 0
-557 -60 0
-557 -61 0
-557 -62 0
-557 -63 0
-557 -64 0
-557 -65 0
-557 -66 0
-557 -67 0
-557 -68 0
-557 -69 0
-557 -70 0
-557 -71 0
-557 -72 0
-557 -73 0
-557 -74 0
-557 -75 0
-557 -76 0
-557 -77 0
-557 -78 0
-557 -79 0
-557 -80 0
-557 -88 0
557 1 2 3 4 5 6 7 8 9 10 11 12 13 14 15 16 17 18 19 20 21 22 23 24 25 26 27 28 29 30 31 32 40 49 50 51 52 53 54 55 56 57 58 59 60 61 62 63 64 65 66 67 68 69 70 71 72 73 74 75 76 77 78 79 80 88 0
-558 -556 0
-558 -557 0
558 556 557 0
-559 2 0
-559 33 0
559 -2 -33 0
-560 8 0
-560 34 0
560 -8 -34 0
-561 9 0
-561 35 0
561 -9 -35 0
-562 10 0
-562 36 0
562 -10 -36 0
-563 11 0
-563 37 0
563 -11 -37 0
-564 12 0
-564 38 0
564 -12 -38 0
-565 28 0
-565 39 0
565 -28 -39 0
-566 40 0
-566 41 0
566 -40 -41 0
-567 50 0
-567 81 0
567 -50 -81 0
-568 56 0
-568 82 0
568 -56 -82 0
-569 57 0
-569 83 0
569 -57 -83 0
-570 58 0
-570 84 0
570 -58 -84 0
-571 59 0
-571 85 0
571 -59 -85 0
-572 60 0
-572 86 0
572 -60 -86 0
-573 76 0
-573 87 0
573 -76 -87 0
-574 88 0
-574 89 0
574 -88 -89 0
-575 -559 0
-575 -560 0
-575 -561 0
-575 -562 0
-575 -563 0
-575 -564 0
-575 -565 0
-575 -566 0
-575 -567 0
-575 -568 0
-575 -569 0
-575 -570 0
-575 -571 0
-575 -572 0
-575 -573 0
-575 -574 0
575 559 560 561 562 563 564 565 566 567 568 569 570 571 572 573 574 0
-558 -575 0
-576 -35 0
-576 -36 0
-576 -43 0
-576 -45 0
-576 -83 0
-576 -84 0
-576 -91 0
-576 -93 0
576 35 36 43 45 83 84 91 93 0
-577 -33 0
-577 -34 0
-577 -37 0
-577 -38 0
-577 -39 0
-577 -41 0
-577 -42 0
-577 -44 0
-577 -46 0
-577 -47 0
-577 -48 0
-577 -81 0
-577 -82 0
-577 -85 0
-577 -86 0
-577 -87 0
-577 -89 0
-577 -90 0
-577 -92 0
-577 -94 0
-577 -95 0
-577 -96 0
577 33 34 37 38 39 41 42 44 46 47 48 81 82 85 86 87 89 90 92 94 95 96 0
-578 -1 0
-578 -6 0
-578 -7 0
-578 -9 0
-578 -10 0
-578 -14 0
-578 -15 0
-578 -19 0
-578 -20 0
-578 -22 0
-578 -23 0
-578 -24 0
-578 -26 0
-578 -27 0
-578 -31 0
-578 -32 0
-578 -49 0
-578 -54 0
-578 -55 0
-578 -57 0
-578 -58 0
-578 -62 0
-578 -63 0
-578 -67 0
-578 -68 0
-578 -70 0
-578 -71 0
-578 -72 0
-578 -74 0
-578 -75 0
-578 -79 0
-578 -80 0
578 1 6 7 9 10 14 15 19 20 22 23 24 26 27 31 32 49 54 55 57 58 62 63 67 68 70 71 72 74 75 79 80 0
-579 -2 0
-579 -3 0
-579 -4 0
-579 -5 0
-579 -8 0
-579 -11 0
-579 -12 0
-579 -13 0
-579 -16 0
-579 -17 0
-579 -18 0
-579 -21 0
-579 -25 0
-579 -28 0
-579 -29 0
-579 -30 0
-579 -40 0
-579 -50 0
-579 -51 0
-579 -52 0
-579 -53 0
-579 -56 0
-579 -59 0
-579 -60 0
-579 -61 0
-579 -64 0
-579 -65 0
-579 -66 0
-579 -69 0
-579 -73 0
-579 -76 0
-579 -77 0
-579 -78 0
-579 -88 0
579 2 3 4 5 8 11 12 13 16 17 18 21 25 28 29 30 40 50 51 52 53 56 59 60 61 64 65 66 69 73 76 77 78 88 0
-580 -576 0
-580 -577 0
-580 -578 0
-580 -579 0
580 576 577 578 579 0
-581 8 0
-581 9 0
-581 34 0
-581 35 0
581 -8 -9 -34 -35 0
-582 56 0
-582 57 0
-582 82 0
-582 83 0
582 -56 -57 -82 -83 0
-583 -581 0
-583 -582 0
583 581 582 0
-580 -583 0
-584 -36 0
-584 -44 0
-584 -45 0
-584 -84 0
-584 -92 0
-584 -93 0
584 36 44 45 84 92 93 0
-585 -33 0
-585 -34 0
-585 -35 0
-585 -37 0
-585 -38 0
-585 -39 0
-585 -41 0
-585 -42 0
-585 -43 0
-585 -46 0
-585 -47 0
-585 -48 0
-585 -81 0
-585 -82 0
-585 -83 0
-585 -85 0
-585 -86 0
-585 -87 0
-585 -89 0
-585 -90 0
-585 -91 0
-585 -94 0
-585 -95 0
-585 -96 0
585 33 34 35 37 38 39 41 42 43 46 47 48 81 82 83 85 86 87 89 90 91 94 95 96 0
-586 -1 0
-586 -7 0
-586 -10 0
-586 -15 0
-586 -20 0
-586 -23 0
-586 -24 0
-586 -27 0
-586 -32 0
-586 -49 0
-586 -55 0
-586 -58 0
-586 -63 0
-586 -68 0
-586 -71 0
-586 -72 0
-586 -75 0
-586 -80 0
586 1 7 10 15 20 23 24 27 32 49 55 58 63 68 71 72 75 80 0
-587 -2 0
-587 -3 0
-587 -4 0
-587 -5 0
-587 -6 0
-587 -8 0
-587 -9 0
-587 -11 0
-587 -12 0
-587 -13 0
-587 -14 0
-587 -16 0
-587 -17 0
-587 -18 0
-587 -19 0
-587 -21 0
-587 -22 0
-587 -25 0
-587 -26 0
-587 -28 0
-587 -29 0
-587 -30 0
-587 -31 0
-587 -40 0
-587 -50 0
-587 -51 0
-587 -52 0
-587 -53 0
-587 -54 0
-587 -56 0
-587 -57 0
-587 -59 0
-587 -60 0
-587 -61 0
-587 -62 0
-587 -64 0
-587 -65 0
-587 -66 0
-587 -67 0
-587 -69 0
-587 -70 0
-587 -73 0
-587 -74 0
-587 -76 0
-587 -77 0
-587 -78 0
-587 -79 0
-587 -88 0
587 2 3 4 5 6 8 9 11 12 13 14 16 17 18 19 21 22 25 26 28 29 30 31 40 50 51 52 53 54 56 57 59 60 61 62 64 65 66 67 69 70 73 74 76 77 78 79 88 0
-588 -584 0
-588 -585 0
-588 -586 0
-588 -587 0
588 584 585 586 587 0
-589 9 0
-589 10 0
-589 35 0
-589 36 0
589 -9 -10 -35 -36 0
-590 57 0
-590 58 0
-590 83 0
-590 84 0
590 -57 -58 -83 -84 0
-591 -589 0
-591 -590 0
591 589 590 0
-588 -591 0
-592 -33 0
-592 -37 0
-592 -38 0
-592 -39 0
-592 -41 0
-592 -46 0
-592 -47 0
-592 -48 0
-592 -81 0
-592 -85 0
-592 -86 0
-592 -87 0
-592 -89 0
-592 -94 0
-592 -95 0
-592 -96 0
592 33 37 38 39 41 46 47 48 81 85 86 87 89 94 95 96 0
-593 -34 0
-593 -35 0
-593 -36 0
-593 -42 0
-593 -43 0
-593 -44 0
-593 -45 0
-593 -82 0
-593 -83 0
-593 -84 0
-593 -90 0
-593 -91 0
-593 -92 0
-593 -93 0
593 34 35 36 42 43 44 45 82 83 84 90 91 92 93 0
-594 -1 0
-594 -2 0
-594 -3 0
-594 -4 0
-594 -5 0
-594 -6 0
-594 -7 0
-594 -11 0
-594 -12 0
-594 -16 0
-594 -17 0
-594 -21 0
-594 -22 0
-594 -23 0
-594 -25 0
-594 -26 0
-594 -27 0
-594 -28 0
-594 -29 0
-594 -30 0
-594 -31 0
-594 -32 0
-594 -40 0
-594 -49 0
-594 -50 0
-594 -51 0
-594 -52 0
-594 -53 0
-594 -54 0
-594 -55 0
-594 -59 0
-594 -60 0
-594 -64 0
-594 -65 0
-594 -69 0
-594 -70 0
-594 -71 0
-594 -73 0
-594 -74 0
-594 -75 0
-594 -76 0
-594 -77 0
-594 -78 0
-594 -79 0
-594 -80 0
-594 -88 0
594 1 2 3 4 5 6 7 11 12 16 17 21 22 23 25 26 27 28 29 30 31 32 40 49 50 51 52 53 54 55 59 60 64 65 69 70 71 73 74 75 76 77 78 79 80 88 0
-595 -8 0
-595 -9 0
-595 -10 0
-595 -13 0
-595 -14 0
-595 -15 0
-595 -18 0
-595 -19 0
-595 -20 0
-595 -24 0
-595 -56 0
-595 -57 0
-595 -58 0
-595 -61 0
-595 -62 0
-595 -63 0
-595 -66 0
-595 -67 0
-595 -68 0
-595 -72 0
595 8 9 10 13 14 15 18 19 20 24 56 57 58 61 62 63 66 67 68 72 0
-596 -592 0
-596 -593 0
-596 -594 0
-596 -595 0
596 592 593 594 595 0
-597 8 0
-597 11 0
-597 34 0
-597 37 0
597 -8 -11 -34 -37 0
-598 56 0
-598 59 0
-598 82 0
-598 85 0
598 -56 -59 -82 -85 0
-599 -597 0
-599 -598 0
599 597 598 0
-596 -599 0
-600 -33 0
-600 -38 0
-600 -39 0
-600 -41 0
-600 -47 0
-600 -48 0
-600 -81 0
-600 -86 0
-600 -87 0
-600 -89 0
-600 -95 0
-600 -96 0
600 33 38 39 41 47 48 81 86 87 89 95 96 0
-601 -34 0
-601 -35 0
-601 -36 0
-601 -37 0
-601 -42 0
-601 -43 0
-601 -44 0
-601 -45 0
-601 -46 0
-601 -82 0
-601 -83 0
-601 -84 0
-601 -85 0
-601 -90 0
-601 -91 0
-601 -92 0
-601 -93 0
-601 -94 0
601 34 35 36 37 42 43 44 45 46 82 83 84 85 90 91 92 93 94 0
-602 -1 0
-602 -2 0
-602 -3 0
-602 -4 0
-602 -5 0
-602 -6 0
-602 -7 0
-602 -12 0
-602 -17 0
-602 -24 0
-602 -25 0
-602 -26 0
-602 -27 0
-602 -28 0
-602 -29 0
-602 -30 0
-602 -31 0
-602 -32 0
-602 -40 0
-602 -49 0
-602 -50 0
-602 -51 0
-602 -52 0
-602 -53 0
-602 -54 0
-602 -55 0
-602 -60 0
-602 -65 0
-602 -72 0
-602 -73 0
-602 -74 0
-602 -75 0
-602 -76 0
-602 -77 0
-602 -78 0
-602 -79 0
-602 -80 0
-602 -88 0
602 1 2 3 4 5 6 7 12 17 24 25 26 27 28 29 30 31 32 40 49 50 51 52 53 54 55 60 65 72 73 74 75 76 77 78 79 80 88 0
-603 -8 0
-603 -9 0
-603 -10 0
-603 -11 0
-603 -13 0
-603 -14 0
-603 -15 0
-603 -16 0
-603 -18 0
-603 -19 0
-603 -20 0
-603 -21 0
-603 -22 0
-603 -23 0
-603 -56 0
-603 -57 0
-603 -58 0
-603 -59 0
-603 -61 0
-603 -62 0
-603 -63 0
-603 -64 0
-603 -66 0
-603 -67 0
-603 -68 0
-603 -69 0
-603 -70 0
-603 -71 0
603 8 9 10 11 13 14 15 16 18 19 20 21 22 23 56 57 58 59 61 62 63 64 66 67 68 69 70 71 0
-604 -600 0
-604 -601 0
-604 -602 0
-604 -603 0
604 600 601 602 603 0
-605 11 0
-605 12 0
-605 37 0
-605 38 0
605 -11 -12 -37 -38 0
-606 59 0
-606 60 0
-606 85 0
-606 86 0
606 -59 -60 -85 -86 0
-607 -605 0
-607 -606 0
607 605 606 0
-604 -607 0
-608 -33 0
-608 -39 0
-608 -41 0
-608 -48 0
-608 -81 0
-608 -87 0
-608 -89 0
-608 -96 0
608 33 39 41 48 81 87 89 96 0
-609 -34 0
-609 -35 0
-609 -36 0
-609 -37 0
-609 -38 0
-609 -42 0
-609 -43 0
-609 -44 0
-609 -45 0
-609 -46 0
-609 -47 0
-609 -82 0
-609 -83 0
-609 -84 0
-609 -85 0
-609 -86 0
-609 -90 0
-609 -91 0
-609 -92 0
-609 -93 0
-609 -94 0
-609 -95 0
609 34 35 36 37 38 42 43 44 45 46 47 82 83 84 85 86 90 91 92 93 94 95 0
-610 -2 0
-610 -3 0
-610 -4 0
-610 -5 0
-610 -6 0
-610 -7 0
-610 -28 0
-610 -29 0
-610 -30 0
-610 -31 0
-610 -32 0
-610 -40 0
-610 -50 0
-610 -51 0
-610 -52 0
-610 -53 0
-610 -54 0
-610 -55 0
-610 -76 0
-610 -77 0
-610 -78 0
-610 -79 0
-610 -80 0
-610 -88 0
610 2 3 4 5 6 7 28 29 30 31 32 40 50 51 52 53 54 55 76 77 78 79 80 88 0
-611 -1 0
-611 -8 0
-611 -9 0
-611 -10 0
-611 -11 0
-611 -12 0
-611 -13 0
-611 -14 0
-611 -15 0
-611 -16 0
-611 -17 0
-611 -18 0
-611 -19 0
-611 -20 0
-611 -21 0
-611 -22 0
-611 -23 0
-611 -24 0
-611 -25 0
-611 -26 0
-611 -27 0
-611 -49 0
-611 -56 0
-611 -57 0
-611 -58 0
-611 -59 0
-611 -60 0
-611 -61 0
-611 -62 0
-611 -63 0
-611 -64 0
-611 -65 0
-611 -66 0
-611 -67 0
-611 -68 0
-611 -69 0
-611 -70 0
-611 -71 0
-611 -72 0
-611 -73 0
-611 -74 0
-611 -75 0
611 1 8 9 10 11 12 13 14 15 16 17 18 19 20 21 22 23 24 25 26 27 49 56 57 58 59 60 61 62 63 64 65 66 67 68 69 70 71 72 73 74 75 0
-612 -608 0
-612 -609 0
-612 -610 0
-612 -611 0
612 608 609 610 611 0
-613 12 0
-613 28 0
-613 38 0
-613 39 0
613 -12 -28 -38 -39 0
-614 60 0
-614 76 0
-614 86 0
-614 87 0
614 -60 -76 -86 -87 0
-615 -613 0
-615 -614 0
615 613 614 0
-612 -615 0
-616 -34 0
-616 -35 0
-616 -36 0
-616 -37 0
-616 -38 0
-616 -39 0
-616 -42 0
-616 -43 0
-616 -44 0
-616 -45 0
-616 -46 0
-616 -47 0
-616 -48 0
-616 -82 0
-616 -83 0
-616 -84 0
-616 -85 0
-616 -86 0
-616 -87 0
-616 -90 0
-616 -91 0
-616 -92 0
-616 -93 0
-616 -94 0
-616 -95 0
-616 -96 0
616 34 35 36 37 38 39 42 43 44 45 46 47 48 82 83 84 85 86 87 90 91 92 93 94 95 96 0
-617 -33 0
-617 -41 0
-617 -81 0
-617 -89 0
617 33 41 81 89 0
-618 -8 0
-618 -9 0
-618 -10 0
-618 -11 0
-618 -12 0
-618 -13 0
-618 -14 0
-618 -15 0
-618 -16 0
-618 -17 0
-618 -18 0
-618 -19 0
-618 -20 0
-618 -21 0
-618 -22 0
-618 -23 0
-618 -24 0
-618 -25 0
-618 -26 0
-618 -27 0
-618 -28 0
-618 -29 0
-618 -30 0
-618 -31 0
-618 -32 0
-618 -56 0
-618 -57 0
-618 -58 0
-618 -59 0
-618 -60 0
-618 -61 0
-618 -62 0
-618 -63 0
-618 -64 0
-618 -65 0
-618 -66 0
-618 -67 0
-618 -68 0
-618 -69 0
-618 -70 0
-618 -71 0
-618 -72 0
-618 -73 0
-618 -74 0
-618 -75 0
-618 -76 0
-618 -77 0
-618 -78 0
-618 -79 0
-618 -80 0
618 8 9 10 11 12 13 14 15 16 17 18 19 20 21 22 23 24 25 26 27 28 29 30 31 32 56 57 58 59 60 61 62 63 64 65 66 67 68 69 70 71 72 73 74 75 76 77 78 79 80 0
-619 -1 0
-619 -2 0
-619 -3 0
-619 -4 0
-619 -5 0
-619 -6 0
-619 -7 0
-619 -40 0
-619 -49 0
-619 -50 0
-619 -51 0
-619 -52 0
-619 -53 0
-619 -54 0
-619 -55 0
-619 -88 0
619 1 2 3 4 5 6 7 40 49 50 51 52 53 54 55 88 0
-620 -616 0
-620 -617 0
-620 -618 0
-620 -619 0
620 616 617 618 619 0
-621 2 0
-621 28 0
-621 33 0
-621 39 0
621 -2 -28 -33 -39 0
-622 50 0
-622 76 0
-622 81 0
-622 87 0
622 -50 -76 -81 -87 0
-623 -621 0
-623 -622 0
623 621 622 0
-620 -623 0
-624 -40 0
-624 -41 0
-624 -42 0
-624 -43 0
-624 -44 0
-624 -45 0
-624 -46 0
-624 -47 0
-624 -48 0
-624 -88 0
-624 -89 0
-624 -90 0
-624 -91 0
-624 -92 0
-624 -93 0
-624 -94 0
-624 -95 0
-624 -96 0
624 40 41 42 43 44 45 46 47 48 88 89 90 91 92 93 94 95 96 0
-625 -1 0
-625 -2 0
-625 -3 0
-625 -4 0
-625 -5 0
-625 -6 0
-625 -7 0
-625 -8 0
-625 -9 0
-625 -10 0
-625 -11 0
-625 -12 0
-625 -13 0
-625 -14 0
-625 -15 0
-625 -16 0
-625 -17 0
-625 -18 0
-625 -19 0
-625 -20 0
-625 -21 0
-625 -22 0
-625 -23 0
-625 -24 0
-625 -25 0
-625 -26 0
-625 -27 0
-625 -28 0
-625 -29 0
-625 -30 0
-625 -31 0
-625 -32 0
-625 -33 0
-625 -34 0
-625 -35 0
-625 -36 0
-625 -37 0
-625 -38 0
-625 -39 0
-625 -49 0
-625 -50 0
-625 -51 0
-625 -52 0
-625 -53 0
-625 -54 0
-625 -55 0
-625 -56 0
-625 -57 0
-625 -58 0
-625 -59 0
-625 -60 0
-625 -61 0
-625 -62 0
-625 -63 0
-625 -64 0
-625 -65 0
-625 -66 0
-625 -67 0
-625 -68 0
-625 -69 0
-625 -70 0
-625 -71 0
-625 -72 0
-625 -73 0
-625 -74 0
-625 -75 0
-625 -76 0
-625 -77 0
-625 -78 0
-625 -79 0
-625 -80 0
-625 -81 0
-625 -82 0
-625 -83 0
-625 -84 0
-625 -85 0
-625 -86 0
-625 -87 0
625 1 2 3 4 5 6 7 8 9 10 11 12 13 14 15 16 17 18 19 20 21 22 23 24 25 26 27 28 29 30 31 32 33 34 35 36 37 38 39 49 50 51 52 53 54 55 56 57 58 59 60 61 62 63 64 65 66 67 68 69 70 71 72 73 74 75 76 77 78 79 80 81 82 83 84 85 86 87 0
-626 -624 0
-626 -625 0
626 624 625 0
-627 2 0
-627 40 0
627 -2 -40 0
-628 33 0
-628 41 0
628 -33 -41 0
-629 34 0
-629 42 0
629 -34 -42 0
-630 35 0
-630 43 0
630 -35 -43 0
-631 36 0
-631 45 0
631 -36 -45 0
-632 37 0
-632 46 0
632 -37 -46 0
-633 38 0
-633 47 0
633 -38 -47 0
-634 39 0
-634 48 0
634 -39 -48 0
-635 50 0
-635 88 0
635 -50 -88 0
-636 81 0
-636 89 0
636 -81 -89 0
-637 82 0
-637 90 0
637 -82 -90 0
-638 83 0
-638 91 0
638 -83 -91 0
-639 84 0
-639 93 0
639 -84 -93 0
-640 85 0
-640 94 0
640 -85 -94 0
-641 86 0
-641 95 0
641 -86 -95 0
-642 87 0
-642 96 0
642 -87 -96 0
-643 -627 0
-643 -628 0
-643 -629 0
-643 -630 0
-643 -631 0
-643 -632 0
-643 -633 0
-643 -634 0
-643 -635 0
-643 -636 0
-643 -637 0
-643 -638 0
-643 -639 0
-643 -640 0
-643 -641 0
-643 -642 0
643 627 628 629 630 631 632 633 634 635 636 637 638 639 640 641 642 0
-626 -643 0
-644 -43 0
-644 -45 0
-644 -91 0
-644 -93 0
644 43 45 91 93 0
-645 -40 0
-645 -41 0
-645 -42 0
-645 -44 0
-645 -46 0
-645 -47 0
-645 -48 0
-645 -88 0
-645 -89 0
-645 -90 0
-645 -92 0
-645 -94 0
-645 -95 0
-645 -96 0
645 40 41 42 44 46 47 48 88 89 90 92 94 95 96 0
-646 -1 0
-646 -6 0
-646 -7 0
-646 -9 0
-646 -10 0
-646 -14 0
-646 -15 0
-646 -19 0
-646 -20 0
-646 -22 0
-646 -23 0
-646 -24 0
-646 -26 0
-646 -27 0
-646 -31 0
-646 -32 0
-646 -35 0
-646 -36 0
-646 -49 0
-646 -54 0
-646 -55 0
-646 -57 0
-646 -58 0
-646 -62 0
-646 -63 0
-646 -67 0
-646 -68 0
-646 -70 0
-646 -71 0
-646 -72 0
-646 -74 0
-646 -75 0
-646 -79 0
-646 -80 0
-646 -83 0
-646 -84 0
646 1 6 7 9 10 14 15 19 20 22 23 24 26 27 31 32 35 36 49 54 55 57 58 62 63 67 68 70 71 72 74 75 79 80 83 84 0
-647 -2 0
-647 -3 0
-647 -4 0
-647 -5 0
-647 -8 0
-647 -11 0
-647 -12 0
-647 -13 0
-647 -16 0
-647 -17 0
-647 -18 0
-647 -21 0
-647 -25 0
-647 -28 0
-647 -29 0
-647 -30 0
-647 -33 0
-647 -34 0
-647 -37 0
-647 -38 0
-647 -39 0
-647 -50 0
-647 -51 0
-647 -52 0
-647 -53 0
-647 -56 0
-647 -59 0
-647 -60 0
-647 -61 0
-647 -64 0
-647 -65 0
-647 -66 0
-647 -69 0
-647 -73 0
-647 -76 0
-647 -77 0
-647 -78 0
-647 -81 0
-647 -82 0
-647 -85 0
-647 -86 0
-647 -87 0
647 2 3 4 5 8 11 12 13 16 17 18 21 25 28 29 30 33 34 37 38 39 50 51 52 53 56 59 60 61 64 65 66 69 73 76 77 78 81 82 85 86 87 0
-648 -644 0
-648 -645 0
-648 -646 0
-648 -647 0
648 644 645 646 647 0
-649 34 0
-649 35 0
-649 42 0
-649 43 0
649 -34 -35 -42 -43 0
-650 82 0
-650 83 0
-650 90 0
-650 91 0
650 -82 -83 -90 -91 0
-651 -649 0
-651 -650 0
651 649 650 0
-648 -651 0
-652 -44 0
-652 -45 0
-652 -92 0
-652 -93 0
652 44 45 92 93 0
-653 -40 0
-653 -41 0
-653 -42 0
-653 -43 0
-653 -46 0
-653 -47 0
-653 -48 0
-653 -88 0
-653 -89 0
-653 -90 0
-653 -91 0
-653 -94 0
-653 -95 0
-653 -96 0
653 40 41 42 43 46 47 48 88 89 90 91 94 95 96 0
-654 -1 0
-654 -7 0
-654 -10 0
-654 -15 0
-654 -20 0
-654 -23 0
-654 -24 0
-654 -27 0
-654 -32 0
-654 -36 0
-654 -49 0
-654 -55 0
-654 -58 0
-654 -63 0
-654 -68 0
-654 -71 0
-654 -72 0
-654 -75 0
-654 -80 0
-654 -84 0
654 1 7 10 15 20 23 24 27 32 36 49 55 58 63 68 71 72 75 80 84 0
-655 -2 0
-655 -3 0
-655 -4 0
-655 -5 0
-655 -6 0
-655 -8 0
-655 -9 0
-655 -11 0
-655 -12 0
-655 -13 0
-655 -14 0
-655 -16 0
-655 -17 0
-655 -18 0
-655 -19 0
-655 -21 0
-655 -22 0
-655 -25 0
-655 -26 0
-655 -28 0
-655 -29 0
-655 -30 0
-655 -31 0
-655 -33 0
-655 -34 0
-655 -35 0
-655 -37 0
-655 -38 0
-655 -39 0
-655 -50 0
-655 -51 0
-655 -52 0
-655 -53 0
-655 -54 0
-655 -56 0
-655 -57 0
-655 -59 0
-655 -60 0
-655 -61 0
-655 -62 0
-655 -64 0
-655 -65 0
-655 -66 0
-655 -67 0
-655 -69 0
-655 -70 0
-655 -73 0
-655 -74 0
-655 -76 0
-655 -77 0
-655 -78 0
-655 -79 0
-655 -81 0
-655 -82 0
-655 -83 0
-655 -85 0
-655 -86 0
-655 -87 0
655 2 3 4 5 6 8 9 11 12 13 14 16 17 18 19 21 22 25 26 28 29 30 31 33 34 35 37 38 39 50 51 52 53 54 56 57 59 60 61 62 64 65 66 67 69 70 73 74 76 77 78 79 81 82 83 85 86 87 0
-656 -652 0
-656 -653 0
-656 -654 0
-656 -655 0
656 652 653 654 655 0
-657 35 0
-657 36 0
-657 43 0
-657 45 0
657 -35 -36 -43 -45 0
-658 83 0
-658 84 0
-658 91 0
-658 93 0
658 -83 -84 -91 -93 0
-659 -657 0
-659 -658 0
659 657 658 0
-656 -659 0
-660 -40 0
-660 -41 0
-660 -46 0
-660 -47 0
-660 -48 0
-660 -88 0
-660 -89 0
-660 -94 0
-660 -95 0
-660 -96 0
660 40 41 46 47 48 88 89 94 95 96 0
-661 -42 0
-661 -43 0
-661 -44 0
-661 -45 0
-661 -90 0
-661 -91 0
-661 -92 0
-661 -93 0
661 42 43 44 45 90 91 92 93 0
-662 -1 0
-662 -2 0
-662 -3 0
-662 -4 0
-662 -5 0
-662 -6 0
-662 -7 0
-662 -11 0
-662 -12 0
-662 -16 0
-662 -17 0
-662 -21 0
-662 -22 0
-662 -23 0
-662 -25 0
-662 -26 0
-662 -27 0
-662 -28 0
-662 -29 0
-662 -30 0
-662 -31 0
-662 -32 0
-662 -33 0
-662 -37 0
-662 -38 0
-662 -39 0
-662 -49 0
-662 -50 0
-662 -51 0
-662 -52 0
-662 -53 0
-662 -54 0
-662 -55 0
-662 -59 0
-662 -60 0
-662 -64 0
-662 -65 0
-662 -69 0
-662 -70 0
-662 -71 0
-662 -73 0
-662 -74 0
-662 -75 0
-662 -76 0
-662 -77 0
-662 -78 0
-662 -79 0
-662 -80 0
-662 -81 0
-662 -85 0
-662 -86 0
-662 -87 0
662 1 2 3 4 5 6 7 11 12 16 17 21 22 23 25 26 27 28 29 30 31 32 33 37 38 39 49 50 51 52 53 54 55 59 60 64 65 69 70 71 73 74 75 76 77 78 79 80 81 85 86 87 0
-663 -8 0
-663 -9 0
-663 -10 0
-663 -13 0
-663 -14 0
-663 -15 0
-663 -18 0
-663 -19 0
-663 -20 0
-663 -24 0
-663 -34 0
-663 -35 0
-663 -36 0
-663 -56 0
-663 -57 0
-663 -58 0
-663 -61 0
-663 -62 0
-663 -63 0
-663 -66 0
-663 -67 0
-663 -68 0
-663 -72 0
-663 -82 0
-663 -83 0
-663 -84 0
663 8 9 10 13 14 15 18 19 20 24 34 35 36 56 57 58 61 62 63 66 67 68 72 82 83 84 0
-664 -660 0
-664 -661 0
-664 -662 0
-664 -663 0
664 660 661 662 663 0
-665 34 0
-665 37 0
-665 42 0
-665 46 0
665 -34 -37 -42 -46 0
-666 82 0
-666 85 0
-666 90 0
-666 94 0
666 -82 -85 -90 -94 0
-667 -665 0
-667 -666 0
667 665 666 0
-664 -667 0
-668 -40 0
-668 -41 0
-668 -47 0
-668 -48 0
-668 -88 0
-668 -89 0
-668 -95 0
-668 -96 0
668 40 41 47 48 88 89 95 96 0
-669 -42 0
-669 -43 0
-669 -44 0
-669 -45 0
-669 -46 0
-669 -90 0
-669 -91 0
-669 -92 0
-669 -93 0
-669 -94 0
669 42 43 44 45 46 90 91 92 93 94 0
-670 -1 0
-670 -2 0
-670 -3 0
-670 -4 0
-670 -5 0
-670 -6 0
-670 -7 0
-670 -12 0
-670 -17 0
-670 -24 0
-670 -25 0
-670 -26 0
-670 -27 0
-670 -28 0
-670 -29 0
-670 -30 0
-670 -31 0
-670 -32 0
-670 -33 0
-670 -38 0
-670 -39 0
-670 -49 0
-670 -50 0
-670 -51 0
-670 -52 0
-670 -53 0
-670 -54 0
-670 -55 0
-670 -60 0
-670 -65 0
-670 -72 0
-670 -73 0
-670 -74 0
-670 -75 0
-670 -76 0
-670 -77 0
-670 -78 0
-670 -79 0
-670 -80 0
-670 -81 0
-670 -86 0
-670 -87 0
670 1 2 3 4 5 6 7 12 17 24 25 26 27 28 29 30 31 32 33 38 39 49 50 51 52 53 54 55 60 65 72 73 74 75 76 77 78 79 80 81 86 87 0
-671 -8 0
-671 -9 0
-671 -10 0
-671 -11 0
-671 -13 0
-671 -14 0
-671 -15 0
-671 -16 0
-671 -18 0
-671 -19 0
-671 -20 0
-671 -21 0
-671 -22 0
-671 -23 0
-671 -34 0
-671 -35 0
-671 -36 0
-671 -37 0
-671 -56 0
-671 -57 0
-671 -58 0
-671 -59 0
-671 -61 0
-671 -62 0
-671 -63 0
-671 -64 0
-671 -66 0
-671 -67 0
-671 -68 0
-671 -69 0
-671 -70 0
-671 -71 0
-671 -82 0
-671 -83 0
-671 -84 0
-671 -85 0
671 8 9 10 11 13 14 15 16 18 19 20 21 22 23 34 35 36 37 56 57 58 59 61 62 63 64 66 67 68 69 70 71 82 83 84 85 0
-672 -668 0
-672 -669 0
-672 -670 0
-672 -671 0
672 668 669 670 671 0
-673 37 0
-673 38 0
-673 46 0
-673 47 0
673 -37 -38 -46 -47 0
-674 85 0
-674 86 0
-674 94 0
-674 95 0
674 -85 -86 -94 -95 0
-675 -673 0
-675 -674 0
675 673 674 0
-672 -675 0
-676 -40 0
-676 -41 0
-676 -48 0
-676 -88 0
-676 -89 0
-676 -96 0
676 40 41 48 88 89 96 0
-677 -42 0
-677 -43 0
-677 -44 0
-677 -45 0
-677 -46 0
-677 -47 0
-677 -90 0
-677 -91 0
-677 -92 0
-677 -93 0
-677 -94 0
-677 -95 0
677 42 43 44 45 46 47 90 91 92 93 94 95 0
-678 -2 0
-678 -3 0
-678 -4 0
-678 -5 0
-678 -6 0
-678 -7 0
-678 -28 0
-678 -29 0
-678 -30 0
-678 -31 0
-678 -32 0
-678 -33 0
-678 -39 0
-678 -50 0
-678 -51 0
-678 -52 0
-678 -53 0
-678 -54 0
-678 -55 0
-678 -76 0
-678 -77 0
-678 -78 0
-678 -79 0
-678 -80 0
-678 -81 0
-678 -87 0
678 2 3 4 5 6 7 28 29 30 31 32 33 39 50 51 52 53 54 55 76 77 78 79 80 81 87 0
-679 -1 0
-679 -8 0
-679 -9 0
-679 -10 0
-679 -11 0
-679 -12 0
-679 -13 0
-679 -14 0
-679 -15 0
-679 -16 0
-679 -17 0
-679 -18 0
-679 -19 0
-679 -20 0
-679 -21 0
-679 -22 0
-679 -23 0
-679 -24 0
-679 -25 0
-679 -26 0
-679 -27 0
-679 -34 0
-679 -35 0
-679 -36 0
-679 -37 0
-679 -38 0
-679 -49 0
-679 -56 0
-679 -57 0
-679 -58 0
-679 -59 0
-679 -60 0
-679 -61 0
-679 -62 0
-679 -63 0
-679 -64 0
-679 -65 0
-679 -66 0
-679 -67 0
-679 -68 0
-679 -69 0
-679 -70 0
-679 -71 0
-679 -72 0
-679 -73 0
-679 -74 0
-679 -75 0
-679 -82 0
-679 -83 0
-679 -84 0
-679 -85 0
-679 -86 0
679 1 8 9 10 11 12 13 14 15 16 17 18 19 20 21 22 23 24 25 26 27 34 35 36 37 38 49 56 57 58 59 60 61 62 63 64 65 66 67 68 69 70 71 72 73 74 75 82 83 84 85 86 0
-680 -676 0
-680 -677 0
-680 -678 0
-680 -679 0
680 676 677 678 679 0
-681 38 0
-681 39 0
-681 47 0
-681 48 0
681 -38 -39 -47 -48 0
-682 86 0
-682 87 0
-682 95 0
-682 96 0
682 -86 -87 -95 -96 0
-683 -681 0
-683 -682 0
683 681 682 0
-680 -683 0
-684 -42 0
-684 -43 0
-684 -44 0
-684 -45 0
-684 -46 0
-684 -47 0
-684 -48 0
-684 -90 0
-684 -91 0
-684 -92 0
-684 -93 0
-684 -94 0
-684 -95 0
-684 -96 0
684 42 43 44 45 46 47 48 90 91 92 93 94 95 96 0
-685 -40 0
-685 -41 0
-685 -88 0
-685 -89 0
685 40 41 88 89 0
-686 -8 0
-686 -9 0
-686 -10 0
-686 -11 0
-686 -12 0
-686 -13 0
-686 -14 0
-686 -15 0
-686 -16 0
-686 -17 0
-686 -18 0
-686 -19 0
-686 -20 0
-686 -21 0
-686 -22 0
-686 -23 0
-686 -24 0
-686 -25 0
-686 -26 0
-686 -27 0
-686 -28 0
-686 -29 0
-686 -30 0
-686 -31 0
-686 -32 0
-686 -34 0
-686 -35 0
-686 -36 0
-686 -37 0
-686 -38 0
-686 -39 0
-686 -56 0
-686 -57 0
-686 -58 0
-686 -59 0
-686 -60 0
-686 -61 0
-686 -62 0
-686 -63 0
-686 -64 0
-686 -65 0
-686 -66 0
-686 -67 0
-686 -68 0
-686 -69 0
-686 -70 0
-686 -71 0
-686 -72 0
-686 -73 0
-686 -74 0
-686 -75 0
-686 -76 0
-686 -77 0
-686 -78 0
-686 -79 0
-686 -80 0
-686 -82 0
-686 -83 0
-686 -84 0
-686 -85 0
-686 -86 0
-686 -87 0
686 8 9 10 11 12 13 14 15 16 17 18 19 20 21 22 23 24 25 26 27 28 29 30 31 32 34 35 36 37 38 39 56 57 58 59 60 61 62 63 64 65 66 67 68 69 70 71 72 73 74 75 76 77 78 79 80 82 83 84 85 86 87 0
-687 -1 0
-687 -2 0
-687 -3 0
-687 -4 0
-687 -5 0
-687 -6 0
-687 -7 0
-687 -33 0
-687 -49 0
-687 -50 0
-687 -51 0
-687 -52 0
-687 -53 0
-687 -54 0
-687 -55 0
-687 -81 0
687 1 2 3 4 5 6 7 33 49 50 51 52 53 54 55 81 0
-688 -684 0
-688 -685 0
-688 -686 0
-688 -687 0
688 684 685 686 687 0
-689 33 0
-689 39 0
-689 41 0
-689 48 0
689 -33 -39 -41 -48 0
-690 81 0
-690 87 0
-690 89 0
-690 96 0
690 -81 -87 -89 -96 0
-691 -689 0
-691 -690 0
691 689 690 0
-688 -691 0
-692 -41 0
-692 -42 0
-692 -43 0
-692 -44 0
-692 -45 0
-692 -46 0
-692 -47 0
-692 -48 0
-692 -89 0
-692 -90 0
-692 -91 0
-692 -92 0
-692 -93 0
-692 -94 0
-692 -95 0
-692 -96 0
692 41 42 43 44 45 46 47 48 89 90 91 92 93 94 95 96 0
-693 -40 0
-693 -88 0
693 40 88 0
-694 -33 0
-694 -34 0
-694 -35 0
-694 -36 0
-694 -37 0
-694 -38 0
-694 -39 0
-694 -81 0
-694 -82 0
-694 -83 0
-694 -84 0
-694 -85 0
-694 -86 0
-694 -87 0
694 33 34 35 36 37 38 39 81 82 83 84 85 86 87 0
-695 -1 0
-695 -2 0
-695 -3 0
-695 -4 0
-695 -5 0
-695 -6 0
-695 -7 0
-695 -8 0
-695 -9 0
-695 -10 0
-695 -11 0
-695 -12 0
-695 -13 0
-695 -14 0
-695 -15 0
-695 -16 0
-695 -17 0
-695 -18 0
-695 -19 0
-695 -20 0
-695 -21 0
-695 -22 0
-695 -23 0
-695 -24 0
-695 -25 0
-695 -26 0
-695 -27 0
-695 -28 0
-695 -29 0
-695 -30 0
-695 -31 0
-695 -32 0
-695 -49 0
-695 -50 0
-695 -51 0
-695 -52 0
-695 -53 0
-695 -54 0
-695 -55 0
-695 -56 0
-695 -57 0
-695 -58 0
-695 -59 0
-695 -60 0
-695 -61 0
-695 -62 0
-695 -63 0
-695 -64 0
-695 -65 0
-695 -66 0
-695 -67 0
-695 -68 0
-695 -69 0
-695 -70 0
-695 -71 0
-695 -72 0
-695 -73 0
-695 -74 0
-695 -75 0
-695 -76 0
-695 -77 0
-695 -78 0
-695 -79 0
-695 -80 0
695 1 2 3 4 5 6 7 8 9 10 11 12 13 14 15 16 17 18 19 20 21 22 23 24 25 26 27 28 29 30 31 32 49 50 51 52 53 54 55 56 57 58 59 60 61 62 63 64 65 66 67 68 69 70 71 72 73 74 75 76 77 78 79 80 0
-696 -692 0
-696 -693 0
-696 -694 0
-696 -695 0
696 692 693 694 695 0
-697 2 0
-697 33 0
-697 40 0
-697 41 0
697 -2 -33 -40 -41 0
-698 50 0
-698 81 0
-698 88 0
-698 89 0
698 -50 -81 -88 -89 0
-699 -697 0
-699 -698 0
699 697 698 0
-696 -699 0
-700 -49 0
-700 -50 0
-700 -51 0
-700 -52 0
-700 -53 0
-700 -54 0
-700 -55 0
-700 -56 0
-700 -57 0
-700 -58 0
-700 -59 0
-700 -60 0
-700 -61 0
-700 -62 0
-700 -63 0
-700 -64 0
-700 -65 0
-700 -66 0
-700 -67 0
-700 -68 0
-700 -69 0
-700 -70 0
-700 -71 0
-700 -72 0
-700 -73 0
-700 -74 0
-700 -75 0
-700 -76 0
-700 -77 0
-700 -78 0
-700 -79 0
-700 -80 0
-700 -81 0
-700 -82 0
-700 -83 0
-700 -84 0
-700 -85 0
-700 -86 0
-700 -87 0
-700 -88 0
-700 -89 0
-700 -90 0
-700 -91 0
-700 -92 0
-700 -93 0
-700 -94 0
-700 -95 0
-700 -96 0
700 49 50 51 52 53 54 55 56 57 58 59 60 61 62 63 64 65 66 67 68 69 70 71 72 73 74 75 76 77 78 79 80 81 82 83 84 85 86 87 88 89 90 91 92 93 94 95 96 0
-701 -1 0
-701 -2 0
-701 -3 0
-701 -4 0
-701 -5 0
-701 -6 0
-701 -7 0
-701 -8 0
-701 -9 0
-701 -10 0
-701 -11 0
-701 -12 0
-701 -13 0
-701 -14 0
-701 -15 0
-701 -16 0
-701 -17 0
-701 -18 0
-701 -19 0
-701 -20 0
-701 -21 0
-701 -22 0
-701 -23 0
-701 -24 0
-701 -25 0
-701 -26 0
-701 -27 0
-701 -28 0
-701 -29 0
-701 -30 0
-701 -31 0
-701 -32 0
-701 -33 0
-701 -34 0
-701 -35 0
-701 -36 0
-701 -37 0
-701 -38 0
-701 -39 0
-701 -40 0
-701 -41 0
-701 -42 0
-701 -43 0
-701 -44 0
-701 -45 0
-701 -46 0
-701 -47 0
-701 -48 0
701 1 2 3 4 5 6 7 8 9 10 11 12 13 14 15 16 17 18 19 20 21 22 23 24 25 26 27 28 29 30 31 32 33 34 35 36 37 38 39 40 41 42 43 44 45 46 47 48 0
-702 -700 0
-702 -701 0
702 700 701 0
-703 1 0
-703 49 0
703 -1 -49 0
-704 2 0
-704 50 0
704 -2 -50 0
-705 3 0
-705 51 0
705 -3 -51 0
-706 4 0
-706 52 0
706 -4 -52 0
-707 5 0
-707 53 0
707 -5 -53 0
-708 6 0
-708 54 0
708 -6 -54 0
-709 7 0
-709 55 0
709 -7 -55 0
-710 8 0
-710 56 0
710 -8 -56 0
-711 9 0
-711 57 0
711 -9 -57 0
-712 10 0
-712 58 0
712 -10 -58 0
-713 11 0
-713 59 0
713 -11 -59 0
-714 12 0
-714 60 0
714 -12 -60 0
-715 13 0
-715 61 0
715 -13 -61 0
-716 14 0
-716 62 0
716 -14 -62 0
-717 15 0
-717 63 0
717 -15 -63 0
-718 16 0
-718 64 0
718 -16 -64 0
-719 17 0
-719 65 0
719 -17 -65 0
-720 18 0
-720 66 0
720 -18 -66 0
-721 19 0
-721 67 0
721 -19 -67 0
-722 20 0
-722 68 0
722 -20 -68 0
-723 21 0
-723 69 0
723 -21 -69 0
-724 22 0
-724 70 0
724 -22 -70 0
-725 23 0
-725 71 0
725 -23 -71 0
-726 24 0
-726 72 0
726 -24 -72 0
-727 25 0
-727 73 0
727 -25 -73 0
-728 26 0
-728 74 0
728 -26 -74 0
-729 27 0
-729 75 0
729 -27 -75 0
-730 28 0
-730 76 0
730 -28 -76 0
-731 29 0
-731 77 0
731 -29 -77 0
-732 30 0
-732 78 0
732 -30 -78 0
-733 31 0
-733 79 0
733 -31 -79 0
-734 32 0
-734 80 0
734 -32 -80 0
-735 33 0
-735 81 0
735 -33 -81 0
-736 34 0
-736 82 0
736 -34 -82 0
-737 35 0
-737 83 0
737 -35 -83 0
-738 36 0
-738 84 0
738 -36 -84 0
-739 37 0
-739 85 0
739 -37 -85 0
-740 38 0
-740 86 0
740 -38 -86 0
-741 39 0
-741 87 0
741 -39 -87 0
-742 40 0
-742 88 0
742 -40 -88 0
-743 41 0
-743 89 0
743 -41 -89 0
-744 42 0
-744 90 0
744 -42 -90 0
-745 43 0
-745 91 0
745 -43 -91 0
-746 44 0
-746 92 0
746 -44 -92 0
-747 45 0
-747 93 0
747 -45 -93 0
-748 46 0
-748 94 0
748 -46 -94 0
-749 47 0
-749 95 0
749 -47 -95 0
-750 48 0
-750 96 0
750 -48 -96 0
-751 -703 0
-751 -704 0
-751 -705 0
-751 -706 0
-751 -707 0
-751 -708 0
-751 -709 0
-751 -710 0
-751 -711 0
-751 -712 0
-751 -713 0
-751 -714 0
-751 -715 0
-751 -716 0
-751 -717 0
-751 -718 0
-751 -719 0
-751 -720 0
-751 -721 0
-751 -722 0
-751 -723 0
-751 -724 0
-751 -725 0
-751 -726 0
-751 -727 0
-751 -728 0
-751 -729 0
-751 -730 0
-751 -731 0
-751 -732 0
-751 -733 0
-751 -734 0
-751 -735 0
-751 -736 0
-751 -737 0
-751 -738 0
-751 -739 0
-751 -740 0
-751 -741 0
-751 -742 0
-751 -743 0
-751 -744 0
-751 -745 0
-751 -746 0
-751 -747 0
-751 -748 0
-751 -749 0
-751 -750 0
751 703 704 705 706 707 708 709 710 711 712 713 714 715 716 717 718 719 720 721 722 723 724 725 726 727 728 729 730 731 732 733 734 735 736 737 738 739 740 741 742 743 744 745 746 747 748 749 750 0
-702 -751 0
-752 -49 0
-752 -54 0
-752 -55 0
-752 -57 0
-752 -58 0
-752 -62 0
-752 -63 0
-752 -67 0
-752 -68 0
-752 -70 0
-752 -71 0
-752 -72 0
-752 -74 0
-752 -75 0
-752 -79 0
-752 -80 0
-752 -83 0
-752 -84 0
-752 -91 0
-752 -93 0
752 49 54 55 57 58 62 63 67 68 70 71 72 74 75 79 80 83 84 91 93 0
-753 -50 0
-753 -51 0
-753 -52 0
-753 -53 0
-753 -56 0
-753 -59 0
-753 -60 0
-753 -61 0
-753 -64 0
-753 -65 0
-753 -66 0
-753 -69 0
-753 -73 0
-753 -76 0
-753 -77 0
-753 -78 0
-753 -81 0
-753 -82 0
-753 -85 0
-753 -86 0
-753 -87 0
-753 -88 0
-753 -89 0
-753 -90 0
-753 -92 0
-753 -94 0
-753 -95 0
-753 -96 0
753 50 51 52 53 56 59 60 61 64 65 66 69 73 76 77 78 81 82 85 86 87 88 89 90 92 94 95 96 0
-754 -1 0
-754 -6 0
-754 -7 0
-754 -9 0
-754 -10 0
-754 -14 0
-754 -15 0
-754 -19 0
-754 -20 0
-754 -22 0
-754 -23 0
-754 -24 0
-754 -26 0
-754 -27 0
-754 -31 0
-754 -32 0
-754 -35 0
-754 -36 0
-754 -43 0
-754 -45 0
754 1 6 7 9 10 14 15 19 20 22 23 24 26 27 31 32 35 36 43 45 0
-755 -2 0
-755 -3 0
-755 -4 0
-755 -5 0
-755 -8 0
-755 -11 0
-755 -12 0
-755 -13 0
-755 -16 0
-755 -17 0
-755 -18 0
-755 -21 0
-755 -25 0
-755 -28 0
-755 -29 0
-755 -30 0
-755 -33 0
-755 -34 0
-755 -37 0
-755 -38 0
-755 -39 0
-755 -40 0
-755 -41 0
-755 -42 0
-755 -44 0
-755 -46 0
-755 -47 0
-755 -48 0
755 2 3 4 5 8 11 12 13 16 17 18 21 25 28 29 30 33 34 37 38 39 40 41 42 44 46 47 48 0
-756 -752 0
-756 -753 0
-756 -754 0
-756 -755 0
756 752 753 754 755 0
-757 5 0
-757 6 0
-757 53 0
-757 54 0
757 -5 -6 -53 -54 0
-758 8 0
-758 9 0
-758 56 0
-758 57 0
758 -8 -9 -56 -57 0
-759 13 0
-759 14 0
-759 61 0
-759 62 0
759 -13 -14 -61 -62 0
-760 18 0
-760 19 0
-760 66 0
-760 67 0
760 -18 -19 -66 -67 0
-761 21 0
-761 22 0
-761 69 0
-761 70 0
761 -21 -22 -69 -70 0
-762 25 0
-762 26 0
-762 73 0
-762 74 0
762 -25 -26 -73 -74 0
-763 30 0
-763 31 0
-763 78 0
-763 79 0
763 -30 -31 -78 -79 0
-764 34 0
-764 35 0
-764 82 0
-764 83 0
764 -34 -35 -82 -83 0
-765 42 0
-765 43 0
-765 90 0
-765 91 0
765 -42 -43 -90 -91 0
-766 44 0
-766 45 0
-766 92 0
-766 93 0
766 -44 -45 -92 -93 0
-767 -757 0
-767 -758 0
-767 -759 0
-767 -760 0
-767 -761 0
-767 -762 0
-767 -763 0
-767 -764 0
-767 -765 0
-767 -766 0
767 757 758 759 760 761 762 763 764 765 766 0
-756 -767 0
-768 -49 0
-768 -55 0
-768 -58 0
-768 -63 0
-768 -68 0
-768 -71 0
-768 -72 0
-768 -75 0
-768 -80 0
-768 -84 0
-768 -92 0
-768 -93 0
768 49 55 58 63 68 71 72 75 80 84 92 93 0
-769 -50 0
-769 -51 0
-769 -52 0
-769 -53 0
-769 -54 0
-769 -56 0
-769 -57 0
-769 -59 0
-769 -60 0
-769 -61 0
-769 -62 0
-769 -64 0
-769 -65 0
-769 -66 0
-769 -67 0
-769 -69 0
-769 -70 0
-769 -73 0
-769 -74 0
-769 -76 0
-769 -77 0
-769 -78 0
-769 -79 0
-769 -81 0
-769 -82 0
-769 -83 0
-769 -85 0
-769 -86 0
-769 -87 0
-769 -88 0
-769 -89 0
-769 -90 0
-769 -91 0
-769 -94 0
-769 -95 0
-769 -96 0
769 50 51 52 53 54 56 57 59 60 61 62 64 65 66 67 69 70 73 74 76 77 78 79 81 82 83 85 86 87 88 89 90 91 94 95 96 0
-770 -1 0
-770 -7 0
-770 -10 0
-770 -15 0
-770 -20 0
-770 -23 0
-770 -24 0
-770 -27 0
-770 -32 0
-770 -36 0
-770 -44 0
-770 -45 0
770 1 7 10 15 20 23 24 27 32 36 44 45 0
-771 -2 0
-771 -3 0
-771 -4 0
-771 -5 0
-771 -6 0
-771 -8 0
-771 -9 0
-771 -11 0
-771 -12 0
-771 -13 0
-771 -14 0
-771 -16 0
-771 -17 0
-771 -18 0
-771 -19 0
-771 -21 0
-771 -22 0
-771 -25 0
-771 -26 0
-771 -28 0
-771 -29 0
-771 -30 0
-771 -31 0
-771 -33 0
-771 -34 0
-771 -35 0
-771 -37 0
-771 -38 0
-771 -39 0
-771 -40 0
-771 -41 0
-771 -42 0
-771 -43 0
-771 -46 0
-771 -47 0
-771 -48 0
771 2 3 4 5 6 8 9 11 12 13 14 16 17 18 19 21 22 25 26 28 29 30 31 33 34 35 37 38 39 40 41 42 43 46 47 48 0
-772 -768 0
-772 -769 0
-772 -770 0
-772 -771 0
772 768 769 770 771 0
-773 6 0
-773 7 0
-773 54 0
-773 55 0
773 -6 -7 -54 -55 0
-774 9 0
-774 10 0
-774 57 0
-774 58 0
774 -9 -10 -57 -58 0
-775 14 0
-775 15 0
-775 62 0
-775 63 0
775 -14 -15 -62 -63 0
-776 19 0
-776 20 0
-776 67 0
-776 68 0
776 -19 -20 -67 -68 0
-777 22 0
-777 23 0
-777 70 0
-777 71 0
777 -22 -23 -70 -71 0
-778 26 0
-778 27 0
-778 74 0
-778 75 0
778 -26 -27 -74 -75 0
-779 31 0
-779 32 0
-779 79 0
-779 80 0
779 -31 -32 -79 -80 0
-780 35 0
-780 36 0
-780 83 0
-780 84 0
780 -35 -36 -83 -84 0
-781 42 0
-781 44 0
-781 90 0
-781 92 0
781 -42 -44 -90 -92 0
-782 43 0
-782 45 0
-782 91 0
-782 93 0
782 -43 -45 -91 -93 0
-783 -773 0
-783 -774 0
-783 -775 0
-783 -776 0
-783 -777 0
-783 -778 0
-783 -779 0
-783 -780 0
-783 -781 0
-783 -782 0
783 773 774 775 776 777 778 779 780 781 782 0
-772 -783 0
-784 -49 0
-784 -55 0
-784 -58 0
-784 -63 0
-784 -68 0
-784 -71 0
-784 -72 0
-784 -75 0
-784 -80 0
-784 -84 0
-784 -93 0
784 49 55 58 63 68 71 72 75 80 84 93 0
-785 -92 0
785 92 0
-786 -54 0
-786 -57 0
-786 -62 0
-786 -67 0
-786 -70 0
-786 -74 0
-786 -79 0
-786 -83 0
-786 -91 0
786 54 57 62 67 70 74 79 83 91 0
-787 -50 0
-787 -51 0
-787 -52 0
-787 -53 0
-787 -56 0
-787 -59 0
-787 -60 0
-787 -61 0
-787 -64 0
-787 -65 0
-787 -66 0
-787 -69 0
-787 -73 0
-787 -76 0
-787 -77 0
-787 -78 0
-787 -81 0
-787 -82 0
-787 -85 0
-787 -86 0
-787 -87 0
-787 -88 0
-787 -89 0
-787 -90 0
-787 -94 0
-787 -95 0
-787 -96 0
787 50 51 52 53 56 59 60 61 64 65 66 69 73 76 77 78 81 82 85 86 87 88 89 90 94 95 96 0
-788 -1 0
-788 -7 0
-788 -10 0
-788 -15 0
-788 -20 0
-788 -23 0
-788 -24 0
-788 -27 0
-788 -32 0
-788 -36 0
-788 -45 0
788 1 7 10 15 20 23 24 27 32 36 45 0
-789 -44 0
789 44 0
-790 -6 0
-790 -9 0
-790 -14 0
-790 -19 0
-790 -22 0
-790 -26 0
-790 -31 0
-790 -35 0
-790 -43 0
790 6 9 14 19 22 26 31 35 43 0
-791 -2 0
-791 -3 0
-791 -4 0
-791 -5 0
-791 -8 0
-791 -11 0
-791 -12 0
-791 -13 0
-791 -16 0
-791 -17 0
-791 -18 0
-791 -21 0
-791 -25 0
-791 -28 0
-791 -29 0
-791 -30 0
-791 -33 0
-791 -34 0
-791 -37 0
-791 -38 0
-791 -39 0
-791 -40 0
-791 -41 0
-791 -42 0
-791 -46 0
-791 -47 0
-791 -48 0
791 2 3 4 5 8 11 12 13 16 17 18 21 25 28 29 30 33 34 37 38 39 40 41 42 46 47 48 0
-792 -784 0
-792 -785 0
-792 -786 0
-792 -787 0
-792 -788 0
-792 -789 0
-792 -790 0
-792 -791 0
792 784 785 786 787 788 789 790 791 0
-793 42 0
-793 43 0
-793 44 0
-793 45 0
-793 90 0
-793 91 0
-793 92 0
-793 93 0
793 -42 -43 -44 -45 -90 -91 -92 -93 0
-794 -793 0
794 793 0
-792 -794 0
-795 -49 0
-795 -50 0
-795 -51 0
-795 -52 0
-795 -53 0
-795 -54 0
-795 -55 0
-795 -59 0
-795 -60 0
-795 -64 0
-795 -65 0
-795 -69 0
-795 -70 0
-795 -71 0
-795 -73 0
-795 -74 0
-795 -75 0
-795 -76 0
-795 -77 0
-795 -78 0
-795 -79 0
-795 -80 0
-795 -81 0
-795 -85 0
-795 -86 0
-795 -87 0
-795 -88 0
-795 -89 0
-795 -94 0
-795 -95 0
-795 -96 0
795 49 50 51 52 53 54 55 59 60 64 65 69 70 71 73 74 75 76 77 78 79 80 81 85 86 87 88 89 94 95 96 0
-796 -56 0
-796 -57 0
-796 -58 0
-796 -61 0
-796 -62 0
-796 -63 0
-796 -66 0
-796 -67 0
-796 -68 0
-796 -72 0
-796 -82 0
-796 -83 0
-796 -84 0
-796 -90 0
-796 -91 0
-796 -92 0
-796 -93 0
796 56 57 58 61 62 63 66 67 68 72 82 83 84 90 91 92 93 0
-797 -1 0
-797 -2 0
-797 -3 0
-797 -4 0
-797 -5 0
-797 -6 0
-797 -7 0
-797 -11 0
-797 -12 0
-797 -16 0
-797 -17 0
-797 -21 0
-797 -22 0
-797 -23 0
-797 -25 0
-797 -26 0
-797 -27 0
-797 -28 0
-797 -29 0
-797 -30 0
-797 -31 0
-797 -32 0
-797 -33 0
-797 -37 0
-797 -38 0
-797 -39 0
-797 -40 0
-797 -41 0
-797 -46 0
-797 -47 0
-797 -48 0
797 1 2 3 4 5 6 7 11 12 16 17 21 22 23 25 26 27 28 29 30 31 32 33 37 38 39 40 41 46 47 48 0
-798 -8 0
-798 -9 0
-798 -10 0
-798 -13 0
-798 -14 0
-798 -15 0
-798 -18 0
-798 -19 0
-798 -20 0
-798 -24 0
-798 -34 0
-798 -35 0
-798 -36 0
-798 -42 0
-798 -43 0
-798 -44 0
-798 -45 0
798 8 9 10 13 14 15 18 19 20 24 34 35 36 42 43 44 45 0
-799 -795 0
-799 -796 0
-799 -797 0
-799 -798 0
799 795 796 797 798 0
-800 8 0
-800 11 0
-800 56 0
-800 59 0
800 -8 -11 -56 -59 0
-801 13 0
-801 16 0
-801 61 0
-801 64 0
801 -13 -16 -61 -64 0
-802 18 0
-802 21 0
-802 66 0
-802 69 0
802 -18 -21 -66 -69 0
-803 19 0
-803 22 0
-803 67 0
-803 70 0
803 -19 -22 -67 -70 0
-804 20 0
-804 23 0
-804 68 0
-804 71 0
804 -20 -23 -68 -71 0
-805 24 0
-805 27 0
-805 72 0
-805 75 0
805 -24 -27 -72 -75 0
-806 34 0
-806 37 0
-806 82 0
-806 85 0
806 -34 -37 -82 -85 0
-807 42 0
-807 46 0
-807 90 0
-807 94 0
807 -42 -46 -90 -94 0
-808 -800 0
-808 -801 0
-808 -802 0
-808 -803 0
-808 -804 0
-808 -805 0
-808 -806 0
-808 -807 0
808 800 801 802 803 804 805 806 807 0
-799 -808 0
-809 -49 0
-809 -54 0
-809 -55 0
-809 -70 0
-809 -71 0
-809 -74 0
-809 -75 0
-809 -79 0
-809 -80 0
809 49 54 55 70 71 74 75 79 80 0
-810 -50 0
-810 -51 0
-810 -52 0
-810 -53 0
-810 -59 0
-810 -60 0
-810 -64 0
-810 -65 0
-810 -69 0
-810 -73 0
-810 -76 0
-810 -77 0
-810 -78 0
-810 -81 0
-810 -85 0
-810 -86 0
-810 -87 0
-810 -88 0
-810 -89 0
-810 -94 0
-810 -95 0
-810 -96 0
810 50 51 52 53 59 60 64 65 69 73 76 77 78 81 85 86 87 88 89 94 95 96 0
-811 -57 0
-811 -58 0
-811 -62 0
-811 -63 0
-811 -67 0
-811 -68 0
-811 -72 0
-811 -83 0
-811 -84 0
-811 -91 0
-811 -93 0
811 57 58 62 63 67 68 72 83 84 91 93 0
-812 -56 0
-812 -61 0
-812 -66 0
-812 -82 0
-812 -90 0
-812 -92 0
812 56 61 66 82 90 92 0
-813 -1 0
-813 -6 0
-813 -7 0
-813 -22 0
-813 -23 0
-813 -26 0
-813 -27 0
-813 -31 0
-813 -32 0
813 1 6 7 22 23 26 27 31 32 0
-814 -2 0
-814 -3 0
-814 -4 0
-814 -5 0
-814 -11 0
-814 -12 0
-814 -16 0
-814 -17 0
-814 -21 0
-814 -25 0
-814 -28 0
-814 -29 0
-814 -30 0
-814 -33 0
-814 -37 0
-814 -38 0
-814 -39 0
-814 -40 0
-814 -41 0
-814 -46 0
-814 -47 0
-814 -48 0
814 2 3 4 5 11 12 16 17 21 25 28 29 30 33 37 38 39 40 41 46 47 48 0
-815 -9 0
-815 -10 0
-815 -14 0
-815 -15 0
-815 -19 0
-815 -20 0
-815 -24 0
-815 -35 0
-815 -36 0
-815 -43 0
-815 -45 0
815 9 10 14 15 19 20 24 35 36 43 45 0
-816 -8 0
-816 -13 0
-816 -18 0
-816 -34 0
-816 -42 0
-816 -44 0
816 8 13 18 34 42 44 0
-817 -809 0
-817 -810 0
-817 -811 0
-817 -812 0
-817 -813 0
-817 -814 0
-817 -815 0
-817 -816 0
817 809 810 811 812 813 814 815 816 0
-818 18 0
-818 19 0
-818 21 0
-818 22 0
-818 66 0
-818 67 0
-818 69 0
-818 70 0
818 -18 -19 -21 -22 -66 -67 -69 -70 0
-819 -818 0
819 818 0
-817 -819 0
-820 -49 0
-820 -55 0
-820 -71 0
-820 -75 0
-820 -80 0
820 49 55 71 75 80 0
-821 -50 0
-821 -51 0
-821 -52 0
-821 -53 0
-821 -54 0
-821 -59 0
-821 -60 0
-821 -64 0
-821 -65 0
-821 -69 0
-821 -70 0
-821 -73 0
-821 -74 0
-821 -76 0
-821 -77 0
-821 -78 0
-821 -79 0
-821 -81 0
-821 -85 0
-821 -86 0
-821 -87 0
-821 -88 0
-821 -89 0
-821 -94 0
-821 -95 0
-821 -96 0
821 50 51 52 53 54 59 60 64 65 69 70 73 74 76 77 78 79 81 85 86 87 88 89 94 95 96 0
-822 -58 0
-822 -63 0
-822 -68 0
-822 -72 0
-822 -84 0
-822 -92 0
-822 -93 0
822 58 63 68 72 84 92 93 0
-823 -56 0
-823 -57 0
-823 -61 0
-823 -62 0
-823 -66 0
-823 -67 0
-823 -82 0
-823 -83 0
-823 -90 0
-823 -91 0
823 56 57 61 62 66 67 82 83 90 91 0
-824 -1 0
-824 -7 0
-824 -23 0
-824 -27 0
-824 -32 0
824 1 7 23 27 32 0
-825 -2 0
-825 -3 0
-825 -4 0
-825 -5 0
-825 -6 0
-825 -11 0
-825 -12 0
-825 -16 0
-825 -17 0
-825 -21 0
-825 -22 0
-825 -25 0
-825 -26 0
-825 -28 0
-825 -29 0
-825 -30 0
-825 -31 0
-825 -33 0
-825 -37 0
-825 -38 0
-825 -39 0
-825 -40 0
-825 -41 0
-825 -46 0
-825 -47 0
-825 -48 0
825 2 3 4 5 6 11 12 16 17 21 22 25 26 28 29 30 31 33 37 38 39 40 41 46 47 48 0
-826 -10 0
-826 -15 0
-826 -20 0
-826 -24 0
-826 -36 0
-826 -44 0
-826 -45 0
826 10 15 20 24 36 44 45 0
-827 -8 0
-827 -9 0
-827 -13 0
-827 -14 0
-827 -18 0
-827 -19 0
-827 -34 0
-827 -35 0
-827 -42 0
-827 -43 0
827 8 9 13 14 18 19 34 35 42 43 0
-828 -820 0
-828 -821 0
-828 -822 0
-828 -823 0
-828 -824 0
-828 -825 0
-828 -826 0
-828 -827 0
828 820 821 822 823 824 825 826 827 0
-829 19 0
-829 20 0
-829 22 0
-829 23 0
-829 67 0
-829 68 0
-829 70 0
-829 71 0
829 -19 -20 -22 -23 -67 -68 -70 -71 0
-830 -829 0
830 829 0
-828 -830 0
-831 -49 0
-831 -50 0
-831 -51 0
-831 -52 0
-831 -53 0
-831 -54 0
-831 -55 0
-831 -60 0
-831 -65 0
-831 -72 0
-831 -73 0
-831 -74 0
-831 -75 0
-831 -76 0
-831 -77 0
-831 -78 0
-831 -79 0
-831 -80 0
-831 -81 0
-831 -86 0
-831 -87 0
-831 -88 0
-831 -89 0
-831 -95 0
-831 -96 0
831 49 50 51 52 53 54 55 60 65 72 73 74 75 76 77 78 79 80 81 86 87 88 89 95 96 0
-832 -56 0
-832 -57 0
-832 -58 0
-832 -59 0
-832 -61 0
-832 -62 0
-832 -63 0
-832 -64 0
-832 -66 0
-832 -67 0
-832 -68 0
-832 -69 0
-832 -70 0
-832 -71 0
-832 -82 0
-832 -83 0
-832 -84 0
-832 -85 0
-832 -90 0
-832 -91 0
-832 -92 0
-832 -93 0
-832 -94 0
832 56 57 58 59 61 62 63 64 66 67 68 69 70 71 82 83 84 85 90 91 92 93 94 0
-833 -1 0
-833 -2 0
-833 -3 0
-833 -4 0
-833 -5 0
-833 -6 0
-833 -7 0
-833 -12 0
-833 -17 0
-833 -24 0
-833 -25 0
-833 -26 0
-833 -27 0
-833 -28 0
-833 -29 0
-833 -30 0
-833 -31 0
-833 -32 0
-833 -33 0
-833 -38 0
-833 -39 0
-833 -40 0
-833 -41 0
-833 -47 0
-833 -48 0
833 1 2 3 4 5 6 7 12 17 24 25 26 27 28 29 30 31 32 33 38 39 40 41 47 48 0
-834 -8 0
-834 -9 0
-834 -10 0
-834 -11 0
-834 -13 0
-834 -14 0
-834 -15 0
-834 -16 0
-834 -18 0
-834 -19 0
-834 -20 0
-834 -21 0
-834 -22 0
-834 -23 0
-834 -34 0
-834 -35 0
-834 -36 0
-834 -37 0
-834 -42 0
-834 -43 0
-834 -44 0
-834 -45 0
-834 -46 0
834 8 9 10 11 13 14 15 16 18 19 20 21 22 23 34 35 36 37 42 43 44 45 46 0
-835 -831 0
-835 -832 0
-835 -833 0
-835 -834 0
835 831 832 833 834 0
-836 11 0
-836 12 0
-836 59 0
-836 60 0
836 -11 -12 -59 -60 0
-837 16 0
-837 17 0
-837 64 0
-837 65 0
837 -16 -17 -64 -65 0
-838 20 0
-838 24 0
-838 68 0
-838 72 0
838 -20 -24 -68 -72 0
-839 21 0
-839 25 0
-839 69 0
-839 73 0
839 -21 -25 -69 -73 0
-840 22 0
-840 26 0
-840 70 0
-840 74 0
840 -22 -26 -70 -74 0
-841 23 0
-841 27 0
-841 71 0
-841 75 0
841 -23 -27 -71 -75 0
-842 37 0
-842 38 0
-842 85 0
-842 86 0
842 -37 -38 -85 -86 0
-843 46 0
-843 47 0
-843 94 0
-843 95 0
843 -46 -47 -94 -95 0
-844 -836 0
-844 -837 0
-844 -838 0
-844 -839 0
-844 -840 0
-844 -841 0
-844 -842 0
-844 -843 0
844 836 837 838 839 840 841 842 843 0
-835 -844 0
-845 -49 0
-845 -54 0
-845 -55 0
-845 -72 0
-845 -74 0
-845 -75 0
-845 -79 0
-845 -80 0
845 49 54 55 72 74 75 79 80 0
-846 -50 0
-846 -51 0
-846 -52 0
-846 -53 0
-846 -60 0
-846 -65 0
-846 -73 0
-846 -76 0
-846 -77 0
-846 -78 0
-846 -81 0
-846 -86 0
-846 -87 0
-846 -88 0
-846 -89 0
-846 -95 0
-846 -96 0
846 50 51 52 53 60 65 73 76 77 78 81 86 87 88 89 95 96 0
-847 -57 0
-847 -58 0
-847 -62 0
-847 -63 0
-847 -67 0
-847 -68 0
-847 -70 0
-847 -71 0
-847 -83 0
-847 -84 0
-847 -91 0
-847 -93 0
847 57 58 62 63 67 68 70 71 83 84 91 93 0
-848 -56 0
-848 -59 0
-848 -61 0
-848 -64 0
-848 -66 0
-848 -69 0
-848 -82 0
-848 -85 0
-848 -90 0
-848 -92 0
-848 -94 0
848 56 59 61 64 66 69 82 85 90 92 94 0
-849 -1 0
-849 -6 0
-849 -7 0
-849 -24 0
-849 -26 0
-849 -27 0
-849 -31 0
-849 -32 0
849 1 6 7 24 26 27 31 32 0
-850 -2 0
-850 -3 0
-850 -4 0
-850 -5 0
-850 -12 0
-850 -17 0
-850 -25 0
-850 -28 0
-850 -29 0
-850 -30 0
-850 -33 0
-850 -38 0
-850 -39 0
-850 -40 0
-850 -41 0
-850 -47 0
-850 -48 0
850 2 3 4 5 12 17 25 28 29 30 33 38 39 40 41 47 48 0
-851 -9 0
-851 -10 0
-851 -14 0
-851 -15 0
-851 -19 0
-851 -20 0
-851 -22 0
-851 -23 0
-851 -35 0
-851 -36 0
-851 -43 0
-851 -45 0
851 9 10 14 15 19 20 22 23 35 36 43 45 0
-852 -8 0
-852 -11 0
-852 -13 0
-852 -16 0
-852 -18 0
-852 -21 0
-852 -34 0
-852 -37 0
-852 -42 0
-852 -44 0
-852 -46 0
852 8 11 13 16 18 21 34 37 42 44 46 0
-853 -845 0
-853 -846 0
-853 -847 0
-853 -848 0
-853 -849 0
-853 -850 0
-853 -851 0
-853 -852 0
853 845 846 847 848 849 850 851 852 0
-854 21 0
-854 22 0
-854 25 0
-854 26 0
-854 69 0
-854 70 0
-854 73 0
-854 74 0
854 -21 -22 -25 -26 -69 -70 -73 -74 0
-855 -854 0
855 854 0
-853 -855 0
-856 -49 0
-856 -55 0
-856 -72 0
-856 -75 0
-856 -80 0
856 49 55 72 75 80 0
-857 -50 0
-857 -51 0
-857 -52 0
-857 -53 0
-857 -54 0
-857 -60 0
-857 -65 0
-857 -73 0
-857 -74 0
-857 -76 0
-857 -77 0
-857 -78 0
-857 -79 0
-857 -81 0
-857 -86 0
-857 -87 0
-857 -88 0
-857 -89 0
-857 -95 0
-857 -96 0
857 50 51 52 53 54 60 65 73 74 76 77 78 79 81 86 87 88 89 95 96 0
-858 -58 0
-858 -63 0
-858 -68 0
-858 -71 0
-858 -84 0
-858 -92 0
-858 -93 0
858 58 63 68 71 84 92 93 0
-859 -56 0
-859 -57 0
-859 -59 0
-859 -61 0
-859 -62 0
-859 -64 0
-859 -66 0
-859 -67 0
-859 -69 0
-859 -70 0
-859 -82 0
-859 -83 0
-859 -85 0
-859 -90 0
-859 -91 0
-859 -94 0
859 56 57 59 61 62 64 66 67 69 70 82 83 85 90 91 94 0
-860 -1 0
-860 -7 0
-860 -24 0
-860 -27 0
-860 -32 0
860 1 7 24 27 32 0
-861 -2 0
-861 -3 0
-861 -4 0
-861 -5 0
-861 -6 0
-861 -12 0
-861 -17 0
-861 -25 0
-861 -26 0
-861 -28 0
-861 -29 0
-861 -30 0
-861 -31 0
-861 -33 0
-861 -38 0
-861 -39 0
-861 -40 0
-861 -41 0
-861 -47 0
-861 -48 0
861 2 3 4 5 6 12 17 25 26 28 29 30 31 33 38 39 40 41 47 48 0
-862 -10 0
-862 -15 0
-862 -20 0
-862 -23 0
-862 -36 0
-862 -44 0
-862 -45 0
862 10 15 20 23 36 44 45 0
-863 -8 0
-863 -9 0
-863 -11 0
-863 -13 0
-863 -14 0
-863 -16 0
-863 -18 0
-863 -19 0
-863 -21 0
-863 -22 0
-863 -34 0
-863 -35 0
-863 -37 0
-863 -42 0
-863 -43 0
-863 -46 0
863 8 9 11 13 14 16 18 19 21 22 34 35 37 42 43 46 0
-864 -856 0
-864 -857 0
-864 -858 0
-864 -859 0
-864 -860 0
-864 -861 0
-864 -862 0
-864 -863 0
864 856 857 858 859 860 861 862 863 0
-865 22 0
-865 23 0
-865 26 0
-865 27 0
-865 70 0
-865 71 0
-865 74 0
-865 75 0
865 -22 -23 -26 -27 -70 -71 -74 -75 0
-866 -865 0
866 865 0
-864 -866 0
-867 -49 0
-867 -50 0
-867 -51 0
-867 -52 0
-867 -53 0
-867 -54 0
-867 -55 0
-867 -60 0
-867 -65 0
-867 -73 0
-867 -74 0
-867 -75 0
-867 -76 0
-867 -77 0
-867 -78 0
-867 -79 0
-867 -80 0
-867 -81 0
-867 -86 0
-867 -87 0
-867 -88 0
-867 -89 0
-867 -95 0
-867 -96 0
867 49 50 51 52 53 54 55 60 65 73 74 75 76 77 78 79 80 81 86 87 88 89 95 96 0
-868 -72 0
868 72 0
-869 -59 0
-869 -64 0
-869 -69 0
-869 -70 0
-869 -71 0
-869 -85 0
-869 -94 0
869 59 64 69 70 71 85 94 0
-870 -56 0
-870 -57 0
-870 -58 0
-870 -61 0
-870 -62 0
-870 -63 0
-870 -66 0
-870 -67 0
-870 -68 0
-870 -82 0
-870 -83 0
-870 -84 0
-870 -90 0
-870 -91 0
-870 -92 0
-870 -93 0
870 56 57 58 61 62 63 66 67 68 82 83 84 90 91 92 93 0
-871 -1 0
-871 -2 0
-871 -3 0
-871 -4 0
-871 -5 0
-871 -6 0
-871 -7 0
-871 -12 0
-871 -17 0
-871 -25 0
-871 -26 0
-871 -27 0
-871 -28 0
-871 -29 0
-871 -30 0
-871 -31 0
-871 -32 0
-871 -33 0
-871 -38 0
-871 -39 0
-871 -40 0
-871 -41 0
-871 -47 0
-871 -48 0
871 1 2 3 4 5 6 7 12 17 25 26 27 28 29 30 31 32 33 38 39 40 41 47 48 0
-872 -24 0
872 24 0
-873 -11 0
-873 -16 0
-873 -21 0
-873 -22 0
-873 -23 0
-873 -37 0
-873 -46 0
873 11 16 21 22 23 37 46 0
-874 -8 0
-874 -9 0
-874 -10 0
-874 -13 0
-874 -14 0
-874 -15 0
-874 -18 0
-874 -19 0
-874 -20 0
-874 -34 0
-874 -35 0
-874 -36 0
-874 -42 0
-874 -43 0
-874 -44 0
-874 -45 0
874 8 9 10 13 14 15 18 19 20 34 35 36 42 43 44 45 0
-875 -867 0
-875 -868 0
-875 -869 0
-875 -870 0
-875 -871 0
-875 -872 0
-875 -873 0
-875 -874 0
875 867 868 869 870 871 872 873 874 0
-876 20 0
-876 23 0
-876 24 0
-876 27 0
-876 68 0
-876 71 0
-876 72 0
-876 75 0
876 -20 -23 -24 -27 -68 -71 -72 -75 0
-877 -876 0
877 876 0
-875 -877 0
-878 -49 0
-878 -51 0
-878 -53 0
-878 -54 0
-878 -55 0
-878 -61 0
-878 -62 0
-878 -63 0
-878 -64 0
-878 -65 0
-878 -66 0
-878 -67 0
-878 -68 0
-878 -69 0
-878 -70 0
-878 -71 0
-878 -72 0
-878 -73 0
-878 -74 0
-878 -75 0
-878 -77 0
-878 -78 0
-878 -79 0
-878 -80 0
878 49 51 53 54 55 61 62 63 64 65 66 67 68 69 70 71 72 73 74 75 77 78 79 80 0
-879 -50 0
-879 -52 0
-879 -56 0
-879 -57 0
-879 -58 0
-879 -59 0
-879 -60 0
-879 -76 0
-879 -81 0
-879 -82 0
-879 -83 0
-879 -84 0
-879 -85 0
-879 -86 0
-879 -87 0
-879 -88 0
-879 -89 0
-879 -90 0
-879 -91 0
-879 -92 0
-879 -93 0
-879 -94 0
-879 -95 0
-879 -96 0
879 50 52 56 57 58 59 60 76 81 82 83 84 85 86 87 88 89 90 91 92 93 94 95 96 0
-880 -1 0
-880 -3 0
-880 -5 0
-880 -6 0
-880 -7 0
-880 -13 0
-880 -14 0
-880 -15 0
-880 -16 0
-880 -17 0
-880 -18 0
-880 -19 0
-880 -20 0
-880 -21 0
-880 -22 0
-880 -23 0
-880 -24 0
-880 -25 0
-880 -26 0
-880 -27 0
-880 -29 0
-880 -30 0
-880 -31 0
-880 -32 0
880 1 3 5 6 7 13 14 15 16 17 18 19 20 21 22 23 24 25 26 27 29 30 31 32 0
-881 -2 0
-881 -4 0
-881 -8 0
-881 -9 0
-881 -10 0
-881 -11 0
-881 -12 0
-881 -28 0
-881 -33 0
-881 -34 0
-881 -35 0
-881 -36 0
-881 -37 0
-881 -38 0
-881 -39 0
-881 -40 0
-881 -41 0
-881 -42 0
-881 -43 0
-881 -44 0
-881 -45 0
-881 -46 0
-881 -47 0
-881 -48 0
881 2 4 8 9 10 11 12 28 33 34 35 36 37 38 39 40 41 42 43 44 45 46 47 48 0
-882 -878 0
-882 -879 0
-882 -880 0
-882 -881 0
882 878 879 880 881 0
-883 2 0
-883 3 0
-883 50 0
-883 51 0
883 -2 -3 -50 -51 0
-884 4 0
-884 5 0
-884 52 0
-884 53 0
884 -4 -5 -52 -53 0
-885 8 0
-885 13 0
-885 56 0
-885 61 0
885 -8 -13 -56 -61 0
-886 9 0
-886 14 0
-886 57 0
-886 62 0
886 -9 -14 -57 -62 0
-887 10 0
-887 15 0
-887 58 0
-887 63 0
887 -10 -15 -58 -63 0
-888 11 0
-888 16 0
-888 59 0
-888 64 0
888 -11 -16 -59 -64 0
-889 12 0
-889 17 0
-889 60 0
-889 65 0
889 -12 -17 -60 -65 0
-890 28 0
-890 29 0
-890 76 0
-890 77 0
890 -28 -29 -76 -77 0
-891 -883 0
-891 -884 0
-891 -885 0
-891 -886 0
-891 -887 0
-891 -888 0
-891 -889 0
-891 -890 0
891 883 884 885 886 887 888 889 890 0
-882 -891 0
-892 -49 0
-892 -54 0
-892 -55 0
-892 -62 0
-892 -63 0
-892 -67 0
-892 -68 0
-892 -70 0
-892 -71 0
-892 -72 0
-892 -74 0
-892 -75 0
-892 -79 0
-892 -80 0
892 49 54 55 62 63 67 68 70 71 72 74 75 79 80 0
-893 -51 0
-893 -53 0
-893 -61 0
-893 -64 0
-893 -65 0
-893 -66 0
-893 -69 0
-893 -73 0
-893 -77 0
-893 -78 0
893 51 53 61 64 65 66 69 73 77 78 0
-894 -57 0
-894 -58 0
-894 -83 0
-894 -84 0
-894 -91 0
-894 -93 0
894 57 58 83 84 91 93 0
-895 -50 0
-895 -52 0
-895 -56 0
-895 -59 0
-895 -60 0
-895 -76 0
-895 -81 0
-895 -82 0
-895 -85 0
-895 -86 0
-895 -87 0
-895 -88 0
-895 -89 0
-895 -90 0
-895 -92 0
-895 -94 0
-895 -95 0
-895 -96 0
895 50 52 56 59 60 76 81 82 85 86 87 88 89 90 92 94 95 96 0
-896 -1 0
-896 -6 0
-896 -7 0
-896 -14 0
-896 -15 0
-896 -19 0
-896 -20 0
-896 -22 0
-896 -23 0
-896 -24 0
-896 -26 0
-896 -27 0
-896 -31 0
-896 -32 0
896 1 6 7 14 15 19 20 22 23 24 26 27 31 32 0
-897 -3 0
-897 -5 0
-897 -13 0
-897 -16 0
-897 -17 0
-897 -18 0
-897 -21 0
-897 -25 0
-897 -29 0
-897 -30 0
897 3 5 13 16 17 18 21 25 29 30 0
-898 -9 0
-898 -10 0
-898 -35 0
-898 -36 0
-898 -43 0
-898 -45 0
898 9 10 35 36 43 45 0
-899 -2 0
-899 -4 0
-899 -8 0
-899 -11 0
-899 -12 0
-899 -28 0
-899 -33 0
-899 -34 0
-899 -37 0
-899 -38 0
-899 -39 0
-899 -40 0
-899 -41 0
-899 -42 0
-899 -44 0
-899 -46 0
-899 -47 0
-899 -48 0
899 2 4 8 11 12 28 33 34 37 38 39 40 41 42 44 46 47 48 0
-900 -892 0
-900 -893 0
-900 -894 0
-900 -895 0
-900 -896 0
-900 -897 0
-900 -898 0
-900 -899 0
900 892 893 894 895 896 897 898 899 0
-901 8 0
-901 9 0
-901 13 0
-901 14 0
-901 56 0
-901 57 0
-901 61 0
-901 62 0
901 -8 -9 -13 -14 -56 -57 -61 -62 0
-902 -901 0
902 901 0
-900 -902 0
-903 -49 0
-903 -55 0
-903 -63 0
-903 -68 0
-903 -71 0
-903 -72 0
-903 -75 0
-903 -80 0
903 49 55 63 68 71 72 75 80 0
-904 -51 0
-904 -53 0
-904 -54 0
-904 -61 0
-904 -62 0
-904 -64 0
-904 -65 0
-904 -66 0
-904 -67 0
-904 -69 0
-904 -70 0
-904 -73 0
-904 -74 0
-904 -77 0
-904 -78 0
-904 -79 0
904 51 53 54 61 62 64 65 66 67 69 70 73 74 77 78 79 0
-905 -58 0
-905 -84 0
-905 -92 0
-905 -93 0
905 58 84 92 93 0
-906 -50 0
-906 -52 0
-906 -56 0
-906 -57 0
-906 -59 0
-906 -60 0
-906 -76 0
-906 -81 0
-906 -82 0
-906 -83 0
-906 -85 0
-906 -86 0
-906 -87 0
-906 -88 0
-906 -89 0
-906 -90 0
-906 -91 0
-906 -94 0
-906 -95 0
-906 -96 0
906 50 52 56 57 59 60 76 81 82 83 85 86 87 88 89 90 91 94 95 96 0
-907 -1 0
-907 -7 0
-907 -15 0
-907 -20 0
-907 -23 0
-907 -24 0
-907 -27 0
-907 -32 0
907 1 7 15 20 23 24 27 32 0
-908 -3 0
-908 -5 0
-908 -6 0
-908 -13 0
-908 -14 0
-908 -16 0
-908 -17 0
-908 -18 0
-908 -19 0
-908 -21 0
-908 -22 0
-908 -25 0
-908 -26 0
-908 -29 0
-908 -30 0
-908 -31 0
908 3 5 6 13 14 16 17 18 19 21 22 25 26 29 30 31 0
-909 -10 0
-909 -36 0
-909 -44 0
-909 -45 0
909 10 36 44 45 0
-910 -2 0
-910 -4 0
-910 -8 0
-910 -9 0
-910 -11 0
-910 -12 0
-910 -28 0
-910 -33 0
-910 -34 0
-910 -35 0
-910 -37 0
-910 -38 0
-910 -39 0
-910 -40 0
-910 -41 0
-910 -42 0
-910 -43 0
-910 -46 0
-910 -47 0
-910 -48 0
910 2 4 8 9 11 12 28 33 34 35 37 38 39 40 41 42 43 46 47 48 0
-911 -903 0
-911 -904 0
-911 -905 0
-911 -906 0
-911 -907 0
-911 -908 0
-911 -909 0
-911 -910 0
911 903 904 905 906 907 908 909 910 0
-912 9 0
-912 10 0
-912 14 0
-912 15 0
-912 57 0
-912 58 0
-912 62 0
-912 63 0
912 -9 -10 -14 -15 -57 -58 -62 -63 0
-913 -912 0
913 912 0
-911 -913 0
-914 -49 0
-914 -51 0
-914 -53 0
-914 -54 0
-914 -55 0
-914 -64 0
-914 -65 0
-914 -69 0
-914 -70 0
-914 -71 0
-914 -73 0
-914 -74 0
-914 -75 0
-914 -77 0
-914 -78 0
-914 -79 0
-914 -80 0
914 49 51 53 54 55 64 65 69 70 71 73 74 75 77 78 79 80 0
-915 -61 0
-915 -62 0
-915 -63 0
-915 -66 0
-915 -67 0
-915 -68 0
-915 -72 0
915 61 62 63 66 67 68 72 0
-916 -50 0
-916 -52 0
-916 -59 0
-916 -60 0
-916 -76 0
-916 -81 0
-916 -85 0
-916 -86 0
-916 -87 0
-916 -88 0
-916 -89 0
-916 -94 0
-916 -95 0
-916 -96 0
916 50 52 59 60 76 81 85 86 87 88 89 94 95 96 0
-917 -56 0
-917 -57 0
-917 -58 0
-917 -82 0
-917 -83 0
-917 -84 0
-917 -90 0
-917 -91 0
-917 -92 0
-917 -93 0
917 56 57 58 82 83 84 90 91 92 93 0
-918 -1 0
-918 -3 0
-918 -5 0
-918 -6 0
-918 -7 0
-918 -16 0
-918 -17 0
-918 -21 0
-918 -22 0
-918 -23 0
-918 -25 0
-918 -26 0
-918 -27 0
-918 -29 0
-918 -30 0
-918 -31 0
-918 -32 0
918 1 3 5 6 7 16 17 21 22 23 25 26 27 29 30 31 32 0
-919 -13 0
-919 -14 0
-919 -15 0
-919 -18 0
-919 -19 0
-919 -20 0
-919 -24 0
919 13 14 15 18 19 20 24 0
-920 -2 0
-920 -4 0
-920 -11 0
-920 -12 0
-920 -28 0
-920 -33 0
-920 -37 0
-920 -38 0
-920 -39 0
-920 -40 0
-920 -41 0
-920 -46 0
-920 -47 0
-920 -48 0
920 2 4 11 12 28 33 37 38 39 40 41 46 47 48 0
-921 -8 0
-921 -9 0
-921 -10 0
-921 -34 0
-921 -35 0
-921 -36 0
-921 -42 0
-921 -43 0
-921 -44 0
-921 -45 0
921 8 9 10 34 35 36 42 43 44 45 0
-922 -914 0
-922 -915 0
-922 -916 0
-922 -917 0
-922 -918 0
-922 -919 0
-922 -920 0
-922 -921 0
922 914 915 916 917 918 919 920 921 0
-923 8 0
-923 11 0
-923 13 0
-923 16 0
-923 56 0
-923 59 0
-923 61 0
-923 64 0
923 -8 -11 -13 -16 -56 -59 -61 -64 0
-924 -923 0
924 923 0
-922 -924 0
-925 -49 0
-925 -51 0
-925 -53 0
-925 -54 0
-925 -55 0
-925 -65 0
-925 -72 0
-925 -73 0
-925 -74 0
-925 -75 0
-925 -77 0
-925 -78 0
-925 -79 0
-925 -80 0
925 49 51 53 54 55 65 72 73 74 75 77 78 79 80 0
-926 -61 0
-926 -62 0
-926 -63 0
-926 -64 0
-926 -66 0
-926 -67 0
-926 -68 0
-926 -69 0
-926 -70 0
-926 -71 0
926 61 62 63 64 66 67 68 69 70 71 0
-927 -50 0
-927 -52 0
-927 -60 0
-927 -76 0
-927 -81 0
-927 -86 0
-927 -87 0
-927 -88 0
-927 -89 0
-927 -95 0
-927 -96 0
927 50 52 60 76 81 86 87 88 89 95 96 0
-928 -56 0
-928 -57 0
-928 -58 0
-928 -59 0
-928 -82 0
-928 -83 0
-928 -84 0
-928 -85 0
-928 -90 0
-928 -91 0
-928 -92 0
-928 -93 0
-928 -94 0
928 56 57 58 59 82 83 84 85 90 91 92 93 94 0
-929 -1 0
-929 -3 0
-929 -5 0
-929 -6 0
-929 -7 0
-929 -17 0
-929 -24 0
-929 -25 0
-929 -26 0
-929 -27 0
-929 -29 0
-929 -30 0
-929 -31 0
-929 -32 0
929 1 3 5 6 7 17 24 25 26 27 29 30 31 32 0
-930 -13 0
-930 -14 0
-930 -15 0
-930 -16 0
-930 -18 0
-930 -19 0
-930 -20 0
-930 -21 0
-930 -22 0
-930 -23 0
930 13 14 15 16 18 19 20 21 22 23 0
-931 -2 0
-931 -4 0
-931 -12 0
-931 -28 0
-931 -33 0
-931 -38 0
-931 -39 0
-931 -40 0
-931 -41 0
-931 -47 0
-931 -48 0
931 2 4 12 28 33 38 39 40 41 47 48 0
-932 -8 0
-932 -9 0
-932 -10 0
-932 -11 0
-932 -34 0
-932 -35 0
-932 -36 0
-932 -37 0
-932 -42 0
-932 -43 0
-932 -44 0
-932 -45 0
-932 -46 0
932 8 9 10 11 34 35 36 37 42 43 44 45 46 0
-933 -925 0
-933 -926 0
-933 -927 0
-933 -928 0
-933 -929 0
-933 -930 0
-933 -931 0
-933 -932 0
933 925 926 927 928 929 930 931 932 0
-934 11 0
-934 12 0
-934 16 0
-934 17 0
-934 59 0
-934 60 0
-934 64 0
-934 65 0
934 -11 -12 -16 -17 -59 -60 -64 -65 0
-935 -934 0
935 934 0
-933 -935 0
-936 -49 0
-936 -52 0
-936 -53 0
-936 -54 0
-936 -55 0
-936 -66 0
-936 -67 0
-936 -68 0
-936 -69 0
-936 -70 0
-936 -71 0
-936 -72 0
-936 -73 0
-936 -74 0
-936 -75 0
-936 -78 0
-936 -79 0
-936 -80 0
936 49 52 53 54 55 66 67 68 69 70 71 72 73 74 75 78 79 80 0
-937 -50 0
-937 -51 0
-937 -56 0
-937 -57 0
-937 -58 0
-937 -59 0
-937 -60 0
-937 -61 0
-937 -62 0
-937 -63 0
-937 -64 0
-937 -65 0
-937 -76 0
-937 -77 0
-937 -81 0
-937 -82 0
-937 -83 0
-937 -84 0
-937 -85 0
-937 -86 0
-937 -87 0
-937 -88 0
-937 -89 0
-937 -90 0
-937 -91 0
-937 -92 0
-937 -93 0
-937 -94 0
-937 -95 0
-937 -96 0
937 50 51 56 57 58 59 60 61 62 63 64 65 76 77 81 82 83 84 85 86 87 88 89 90 91 92 93 94 95 96 0
-938 -1 0
-938 -4 0
-938 -5 0
-938 -6 0
-938 -7 0
-938 -18 0
-938 -19 0
-938 -20 0
-938 -21 0
-938 -22 0
-938 -23 0
-938 -24 0
-938 -25 0
-938 -26 0
-938 -27 0
-938 -30 0
-938 -31 0
-938 -32 0
938 1 4 5 6 7 18 19 20 21 22 23 24 25 26 27 30 31 32 0
-939 -2 0
-939 -3 0
-939 -8 0
-939 -9 0
-939 -10 0
-939 -11 0
-939 -12 0
-939 -13 0
-939 -14 0
-939 -15 0
-939 -16 0
-939 -17 0
-939 -28 0
-939 -29 0
-939 -33 0
-939 -34 0
-939 -35 0
-939 -36 0
-939 -37 0
-939 -38 0
-939 -39 0
-939 -40 0
-939 -41 0
-939 -42 0
-939 -43 0
-939 -44 0
-939 -45 0
-939 -46 0
-939 -47 0
-939 -48 0
939 2 3 8 9 10 11 12 13 14 15 16 17 28 29 33 34 35 36 37 38 39 40 41 42 43 44 45 46 47 48 0
-940 -936 0
-940 -937 0
-940 -938 0
-940 -939 0
940 936 937 938 939 0
-941 2 0
-941 4 0
-941 50 0
-941 52 0
941 -2 -4 -50 -52 0
-942 3 0
-942 5 0
-942 51 0
-942 53 0
942 -3 -5 -51 -53 0
-943 13 0
-943 18 0
-943 61 0
-943 66 0
943 -13 -18 -61 -66 0
-944 14 0
-944 19 0
-944 62 0
-944 67 0
944 -14 -19 -62 -67 0
-945 15 0
-945 20 0
-945 63 0
-945 68 0
945 -15 -20 -63 -68 0
-946 16 0
-946 21 0
-946 64 0
-946 69 0
946 -16 -21 -64 -69 0
-947 17 0
-947 25 0
-947 65 0
-947 73 0
947 -17 -25 -65 -73 0
-948 29 0
-948 30 0
-948 77 0
-948 78 0
948 -29 -30 -77 -78 0
-949 -941 0
-949 -942 0
-949 -943 0
-949 -944 0
-949 -945 0
-949 -946 0
-949 -947 0
-949 -948 0
949 941 942 943 944 945 946 947 948 0
-940 -949 0
-950 -49 0
-950 -54 0
-950 -55 0
-950 -67 0
-950 -68 0
-950 -70 0
-950 -71 0
-950 -72 0
-950 -74 0
-950 -75 0
-950 -79 0
-950 -80 0
950 49 54 55 67 68 70 71 72 74 75 79 80 0
-951 -52 0
-951 -53 0
-951 -66 0
-951 -69 0
-951 -73 0
-951 -78 0
951 52 53 66 69 73 78 0
-952 -57 0
-952 -58 0
-952 -62 0
-952 -63 0
-952 -83 0
-952 -84 0
-952 -91 0
-952 -93 0
952 57 58 62 63 83 84 91 93 0
-953 -50 0
-953 -51 0
-953 -56 0
-953 -59 0
-953 -60 0
-953 -61 0
-953 -64 0
-953 -65 0
-953 -76 0
-953 -77 0
-953 -81 0
-953 -82 0
-953 -85 0
-953 -86 0
-953 -87 0
-953 -88 0
-953 -89 0
-953 -90 0
-953 -92 0
-953 -94 0
-953 -95 0
-953 -96 0
953 50 51 56 59 60 61 64 65 76 77 81 82 85 86 87 88 89 90 92 94 95 96 0
-954 -1 0
-954 -6 0
-954 -7 0
-954 -19 0
-954 -20 0
-954 -22 0
-954 -23 0
-954 -24 0
-954 -26 0
-954 -27 0
-954 -31 0
-954 -32 0
954 1 6 7 19 20 22 23 24 26 27 31 32 0
-955 -4 0
-955 -5 0
-955 -18 0
-955 -21 0
-955 -25 0
-955 -30 0
955 4 5 18 21 25 30 0
-956 -9 0
-956 -10 0
-956 -14 0
-956 -15 0
-956 -35 0
-956 -36 0
-956 -43 0
-956 -45 0
956 9 10 14 15 35 36 43 45 0
-957 -2 0
-957 -3 0
-957 -8 0
-957 -11 0
-957 -12 0
-957 -13 0
-957 -16 0
-957 -17 0
-957 -28 0
-957 -29 0
-957 -33 0
-957 -34 0
-957 -37 0
-957 -38 0
-957 -39 0
-957 -40 0
-957 -41 0
-957 -42 0
-957 -44 0
-957 -46 0
-957 -47 0
-957 -48 0
957 2 3 8 11 12 13 16 17 28 29 33 34 37 38 39 40 41 42 44 46 47 48 0
-958 -950 0
-958 -951 0
-958 -952 0
-958 -953 0
-958 -954 0
-958 -955 0
-958 -956 0
-958 -957 0
958 950 951 952 953 954 955 956 957 0
-959 13 0
-959 14 0
-959 18 0
-959 19 0
-959 61 0
-959 62 0
-959 66 0
-959 67 0
959 -13 -14 -18 -19 -61 -62 -66 -67 0
-960 -959 0
960 959 0
-958 -960 0
-961 -49 0
-961 -55 0
-961 -68 0
-961 -71 0
-961 -72 0
-961 -75 0
-961 -80 0
961 49 55 68 71 72 75 80 0
-962 -52 0
-962 -53 0
-962 -54 0
-962 -66 0
-962 -67 0
-962 -69 0
-962 -70 0
-962 -73 0
-962 -74 0
-962 -78 0
-962 -79 0
962 52 53 54 66 67 69 70 73 74 78 79 0
-963 -58 0
-963 -63 0
-963 -84 0
-963 -92 0
-963 -93 0
963 58 63 84 92 93 0
-964 -50 0
-964 -51 0
-964 -56 0
-964 -57 0
-964 -59 0
-964 -60 0
-964 -61 0
-964 -62 0
-964 -64 0
-964 -65 0
-964 -76 0
-964 -77 0
-964 -81 0
-964 -82 0
-964 -83 0
-964 -85 0
-964 -86 0
-964 -87 0
-964 -88 0
-964 -89 0
-964 -90 0
-964 -91 0
-964 -94 0
-964 -95 0
-964 -96 0
964 50 51 56 57 59 60 61 62 64 65 76 77 81 82 83 85 86 87 88 89 90 91 94 95 96 0
-965 -1 0
-965 -7 0
-965 -20 0
-965 -23 0
-965 -24 0
-965 -27 0
-965 -32 0
965 1 7 20 23 24 27 32 0
-966 -4 0
-966 -5 0
-966 -6 0
-966 -18 0
-966 -19 0
-966 -21 0
-966 -22 0
-966 -25 0
-966 -26 0
-966 -30 0
-966 -31 0
966 4 5 6 18 19 21 22 25 26 30 31 0
-967 -10 0
-967 -15 0
-967 -36 0
-967 -44 0
-967 -45 0
967 10 15 36 44 45 0
-968 -2 0
-968 -3 0
-968 -8 0
-968 -9 0
-968 -11 0
-968 -12 0
-968 -13 0
-968 -14 0
-968 -16 0
-968 -17 0
-968 -28 0
-968 -29 0
-968 -33 0
-968 -34 0
-968 -35 0
-968 -37 0
-968 -38 0
-968 -39 0
-968 -40 0
-968 -41 0
-968 -42 0
-968 -43 0
-968 -46 0
-968 -47 0
-968 -48 0
968 2 3 8 9 11 12 13 14 16 17 28 29 33 34 35 37 38 39 40 41 42 43 46 47 48 0
-969 -961 0
-969 -962 0
-969 -963 0
-969 -964 0
-969 -965 0
-969 -966 0
-969 -967 0
-969 -968 0
969 961 962 963 964 965 966 967 968 0
-970 14 0
-970 15 0
-970 19 0
-970 20 0
-970 62 0
-970 63 0
-970 67 0
-970 68 0
970 -14 -15 -19 -20 -62 -63 -67 -68 0
-971 -970 0
971 970 0
-969 -971 0
-972 -49 0
-972 -52 0
-972 -53 0
-972 -54 0
-972 -55 0
-972 -69 0
-972 -70 0
-972 -71 0
-972 -73 0
-972 -74 0
-972 -75 0
-972 -78 0
-972 -79 0
-972 -80 0
972 49 52 53 54 55 69 70 71 73 74 75 78 79 80 0
-973 -66 0
-973 -67 0
-973 -68 0
-973 -72 0
973 66 67 68 72 0
-974 -50 0
-974 -51 0
-974 -59 0
-974 -60 0
-974 -64 0
-974 -65 0
-974 -76 0
-974 -77 0
-974 -81 0
-974 -85 0
-974 -86 0
-974 -87 0
-974 -88 0
-974 -89 0
-974 -94 0
-974 -95 0
-974 -96 0
974 50 51 59 60 64 65 76 77 81 85 86 87 88 89 94 95 96 0
-975 -56 0
-975 -57 0
-975 -58 0
-975 -61 0
-975 -62 0
-975 -63 0
-975 -82 0
-975 -83 0
-975 -84 0
-975 -90 0
-975 -91 0
-975 -92 0
-975 -93 0
975 56 57 58 61 62 63 82 83 84 90 91 92 93 0
-976 -1 0
-976 -4 0
-976 -5 0
-976 -6 0
-976 -7 0
-976 -21 0
-976 -22 0
-976 -23 0
-976 -25 0
-976 -26 0
-976 -27 0
-976 -30 0
-976 -31 0
-976 -32 0
976 1 4 5 6 7 21 22 23 25 26 27 30 31 32 0
-977 -18 0
-977 -19 0
-977 -20 0
-977 -24 0
977 18 19 20 24 0
-978 -2 0
-978 -3 0
-978 -11 0
-978 -12 0
-978 -16 0
-978 -17 0
-978 -28 0
-978 -29 0
-978 -33 0
-978 -37 0
-978 -38 0
-978 -39 0
-978 -40 0
-978 -41 0
-978 -46 0
-978 -47 0
-978 -48 0
978 2 3 11 12 16 17 28 29 33 37 38 39 40 41 46 47 48 0
-979 -8 0
-979 -9 0
-979 -10 0
-979 -13 0
-979 -14 0
-979 -15 0
-979 -34 0
-979 -35 0
-979 -36 0
-979 -42 0
-979 -43 0
-979 -44 0
-979 -45 0
979 8 9 10 13 14 15 34 35 36 42 43 44 45 0
-980 -972 0
-980 -973 0
-980 -974 0
-980 -975 0
-980 -976 0
-980 -977 0
-980 -978 0
-980 -979 0
980 972 973 974 975 976 977 978 979 0
-981 13 0
-981 16 0
-981 18 0
-981 21 0
-981 61 0
-981 64 0
-981 66 0
-981 69 0
981 -13 -16 -18 -21 -61 -64 -66 -69 0
-982 -981 0
982 981 0
-980 -982 0
-983 -49 0
-983 -52 0
-983 -53 0
-983 -54 0
-983 -55 0
-983 -72 0
-983 -73 0
-983 -74 0
-983 -75 0
-983 -78 0
-983 -79 0
-983 -80 0
983 49 52 53 54 55 72 73 74 75 78 79 80 0
-984 -66 0
-984 -67 0
-984 -68 0
-984 -69 0
-984 -70 0
-984 -71 0
984 66 67 68 69 70 71 0
-985 -50 0
-985 -51 0
-985 -60 0
-985 -65 0
-985 -76 0
-985 -77 0
-985 -81 0
-985 -86 0
-985 -87 0
-985 -88 0
-985 -89 0
-985 -95 0
-985 -96 0
985 50 51 60 65 76 77 81 86 87 88 89 95 96 0
-986 -56 0
-986 -57 0
-986 -58 0
-986 -59 0
-986 -61 0
-986 -62 0
-986 -63 0
-986 -64 0
-986 -82 0
-986 -83 0
-986 -84 0
-986 -85 0
-986 -90 0
-986 -91 0
-986 -92 0
-986 -93 0
-986 -94 0
986 56 57 58 59 61 62 63 64 82 83 84 85 90 91 92 93 94 0
-987 -1 0
-987 -4 0
-987 -5 0
-987 -6 0
-987 -7 0
-987 -24 0
-987 -25 0
-987 -26 0
-987 -27 0
-987 -30 0
-987 -31 0
-987 -32 0
987 1 4 5 6 7 24 25 26 27 30 31 32 0
-988 -18 0
-988 -19 0
-988 -20 0
-988 -21 0
-988 -22 0
-988 -23 0
988 18 19 20 21 22 23 0
-989 -2 0
-989 -3 0
-989 -12 0
-989 -17 0
-989 -28 0
-989 -29 0
-989 -33 0
-989 -38 0
-989 -39 0
-989 -40 0
-989 -41 0
-989 -47 0
-989 -48 0
989 2 3 12 17 28 29 33 38 39 40 41 47 48 0
-990 -8 0
-990 -9 0
-990 -10 0
-990 -11 0
-990 -13 0
-990 -14 0
-990 -15 0
-990 -16 0
-990 -34 0
-990 -35 0
-990 -36 0
-990 -37 0
-990 -42 0
-990 -43 0
-990 -44 0
-990 -45 0
-990 -46 0
990 8 9 10 11 13 14 15 16 34 35 36 37 42 43 44 45 46 0
-991 -983 0
-991 -984 0
-991 -985 0
-991 -986 0
-991 -987 0
-991 -988 0
-991 -989 0
-991 -990 0
991 983 984 985 986 987 988 989 990 0
-992 16 0
-992 17 0
-992 21 0
-992 25 0
-992 64 0
-992 65 0
-992 69 0
-992 73 0
992 -16 -17 -21 -25 -64 -65 -69 -73 0
-993 -992 0
993 992 0
-991 -993 0
-994 -49 0
-994 -53 0
-994 -54 0
-994 -55 0
-994 -66 0
-994 -67 0
-994 -68 0
-994 -69 0
-994 -70 0
-994 -71 0
-994 -72 0
-994 -73 0
-994 -74 0
-994 -75 0
-994 -78 0
-994 -79 0
-994 -80 0
994 49 53 54 55 66 67 68 69 70 71 72 73 74 75 78 79 80 0
-995 -52 0
995 52 0
-996 -51 0
-996 -61 0
-996 -62 0
-996 -63 0
-996 -64 0
-996 -65 0
-996 -77 0
996 51 61 62 63 64 65 77 0
-997 -50 0
-997 -56 0
-997 -57 0
-997 -58 0
-997 -59 0
-997 -60 0
-997 -76 0
-997 -81 0
-997 -82 0
-997 -83 0
-997 -84 0
-997 -85 0
-997 -86 0
-997 -87 0
-997 -88 0
-997 -89 0
-997 -90 0
-997 -91 0
-997 -92 0
-997 -93 0
-997 -94 0
-997 -95 0
-997 -96 0
997 50 56 57 58 59 60 76 81 82 83 84 85 86 87 88 89 90 91 92 93 94 95 96 0
-998 -1 0
-998 -5 0
-998 -6 0
-998 -7 0
-998 -18 0
-998 -19 0
-998 -20 0
-998 -21 0
-998 -22 0
-998 -23 0
-998 -24 0
-998 -25 0
-998 -26 0
-998 -27 0
-998 -30 0
-998 -31 0
-998 -32 0
998 1 5 6 7 18 19 20 21 22 23 24 25 26 27 30 31 32 0
-999 -4 0
999 4 0
-1000 -3 0
-1000 -13 0
-1000 -14 0
-1000 -15 0
-1000 -16 0
-1000 -17 0
-1000 -29 0
1000 3 13 14 15 16 17 29 0
-1001 -2 0
-1001 -8 0
-1001 -9 0
-1001 -10 0
-1001 -11 0
-1001 -12 0
-1001 -28 0
-1001 -33 0
-1001 -34 0
-1001 -35 0
-1001 -36 0
-1001 -37 0
-1001 -38 0
-1001 -39 0
-1001 -40 0
-1001 -41 0
-1001 -42 0
-1001 -43 0
-1001 -44 0
-1001 -45 0
-1001 -46 0
-1001 -47 0
-1001 -48 0
1001 2 8 9 10 11 12 28 33 34 35 36 37 38 39 40 41 42 43 44 45 46 47 48 0
-1002 -994 0
-1002 -995 0
-1002 -996 0
-1002 -997 0
-1002 -998 0
-1002 -999 0
-1002 -1000 0
-1002 -1001 0
1002 994 995 996 997 998 999 1000 1001 0
-1003 2 0
-1003 3 0
-1003 4 0
-1003 5 0
-1003 50 0
-1003 51 0
-1003 52 0
-1003 53 0
1003 -2 -3 -4 -5 -50 -51 -52 -53 0
-1004 -1003 0
1004 1003 0
-1002 -1004 0
-1005 -50 0
-1005 -51 0
-1005 -52 0
-1005 -53 0
-1005 -54 0
-1005 -55 0
-1005 -76 0
-1005 -77 0
-1005 -78 0
-1005 -79 0
-1005 -80 0
-1005 -81 0
-1005 -87 0
-1005 -88 0
-1005 -89 0
-1005 -96 0
1005 50 51 52 53 54 55 76 77 78 79 80 81 87 88 89 96 0
-1006 -49 0
-1006 -56 0
-1006 -57 0
-1006 -58 0
-1006 -59 0
-1006 -60 0
-1006 -61 0
-1006 -62 0
-1006 -63 0
-1006 -64 0
-1006 -65 0
-1006 -66 0
-1006 -67 0
-1006 -68 0
-1006 -69 0
-1006 -70 0
-1006 -71 0
-1006 -72 0
-1006 -73 0
-1006 -74 0
-1006 -75 0
-1006 -82 0
-1006 -83 0
-1006 -84 0
-1006 -85 0
-1006 -86 0
-1006 -90 0
-1006 -91 0
-1006 -92 0
-1006 -93 0
-1006 -94 0
-1006 -95 0
1006 49 56 57 58 59 60 61 62 63 64 65 66 67 68 69 70 71 72 73 74 75 82 83 84 85 86 90 91 92 93 94 95 0
-1007 -2 0
-1007 -3 0
-1007 -4 0
-1007 -5 0
-1007 -6 0
-1007 -7 0
-1007 -28 0
-1007 -29 0
-1007 -30 0
-1007 -31 0
-1007 -32 0
-1007 -33 0
-1007 -39 0
-1007 -40 0
-1007 -41 0
-1007 -48 0
1007 2 3 4 5 6 7 28 29 30 31 32 33 39 40 41 48 0
-1008 -1 0
-1008 -8 0
-1008 -9 0
-1008 -10 0
-1008 -11 0
-1008 -12 0
-1008 -13 0
-1008 -14 0
-1008 -15 0
-1008 -16 0
-1008 -17 0
-1008 -18 0
-1008 -19 0
-1008 -20 0
-1008 -21 0
-1008 -22 0
-1008 -23 0
-1008 -24 0
-1008 -25 0
-1008 -26 0
-1008 -27 0
-1008 -34 0
-1008 -35 0
-1008 -36 0
-1008 -37 0
-1008 -38 0
-1008 -42 0
-1008 -43 0
-1008 -44 0
-1008 -45 0
-1008 -46 0
-1008 -47 0
1008 1 8 9 10 11 12 13 14 15 16 17 18 19 20 21 22 23 24 25 26 27 34 35 36 37 38 42 43 44 45 46 47 0
-1009 -1005 0
-1009 -1006 0
-1009 -1007 0
-1009 -1008 0
1009 1005 1006 1007 1008 0
-1010 1 0
-1010 7 0
-1010 49 0
-1010 55 0
1010 -1 -7 -49 -55 0
-1011 12 0
-1011 28 0
-1011 60 0
-1011 76 0
1011 -12 -28 -60 -76 0
-1012 17 0
-1012 29 0
-1012 65 0
-1012 77 0
1012 -17 -29 -65 -77 0
-1013 25 0
-1013 30 0
-1013 73 0
-1013 78 0
1013 -25 -30 -73 -78 0
-1014 26 0
-1014 31 0
-1014 74 0
-1014 79 0
1014 -26 -31 -74 -79 0
-1015 27 0
-1015 32 0
-1015 75 0
-1015 80 0
1015 -27 -32 -75 -80 0
-1016 38 0
-1016 39 0
-1016 86 0
-1016 87 0
1016 -38 -39 -86 -87 0
-1017 47 0
-1017 48 0
-1017 95 0
-1017 96 0
1017 -47 -48 -95 -96 0
-1018 -1010 0
-1018 -1011 0
-1018 -1012 0
-1018 -1013 0
-1018 -1014 0
-1018 -1015 0
-1018 -1016 0
-1018 -1017 0
1018 1010 1011 1012 1013 1014 1015 1016 1017 0
-1009 -1018 0
-1019 -54 0
-1019 -55 0
-1019 -79 0
-1019 -80 0
1019 54 55 79 80 0
-1020 -50 0
-1020 -51 0
-1020 -52 0
-1020 -53 0
-1020 -76 0
-1020 -77 0
-1020 -78 0
-1020 -81 0
-1020 -87 0
-1020 -88 0
-1020 -89 0
-1020 -96 0
1020 50 51 52 53 76 77 78 81 87 88 89 96 0
-1021 -49 0
-1021 -57 0
-1021 -58 0
-1021 -62 0
-1021 -63 0
-1021 -67 0
-1021 -68 0
-1021 -70 0
-1021 -71 0
-1021 -72 0
-1021 -74 0
-1021 -75 0
-1021 -83 0
-1021 -84 0
-1021 -91 0
-1021 -93 0
1021 49 57 58 62 63 67 68 70 71 72 74 75 83 84 91 93 0
-1022 -56 0
-1022 -59 0
-1022 -60 0
-1022 -61 0
-1022 -64 0
-1022 -65 0
-1022 -66 0
-1022 -69 0
-1022 -73 0
-1022 -82 0
-1022 -85 0
-1022 -86 0
-1022 -90 0
-1022 -92 0
-1022 -94 0
-1022 -95 0
1022 56 59 60 61 64 65 66 69 73 82 85 86 90 92 94 95 0
-1023 -6 0
-1023 -7 0
-1023 -31 0
-1023 -32 0
1023 6 7 31 32 0
-1024 -2 0
-1024 -3 0
-1024 -4 0
-1024 -5 0
-1024 -28 0
-1024 -29 0
-1024 -30 0
-1024 -33 0
-1024 -39 0
-1024 -40 0
-1024 -41 0
-1024 -48 0
1024 2 3 4 5 28 29 30 33 39 40 41 48 0
-1025 -1 0
-1025 -9 0
-1025 -10 0
-1025 -14 0
-1025 -15 0
-1025 -19 0
-1025 -20 0
-1025 -22 0
-1025 -23 0
-1025 -24 0
-1025 -26 0
-1025 -27 0
-1025 -35 0
-1025 -36 0
-1025 -43 0
-1025 -45 0
1025 1 9 10 14 15 19 20 22 23 24 26 27 35 36 43 45 0
-1026 -8 0
-1026 -11 0
-1026 -12 0
-1026 -13 0
-1026 -16 0
-1026 -17 0
-1026 -18 0
-1026 -21 0
-1026 -25 0
-1026 -34 0
-1026 -37 0
-1026 -38 0
-1026 -42 0
-1026 -44 0
-1026 -46 0
-1026 -47 0
1026 8 11 12 13 16 17 18 21 25 34 37 38 42 44 46 47 0
-1027 -1019 0
-1027 -1020 0
-1027 -1021 0
-1027 -1022 0
-1027 -1023 0
-1027 -1024 0
-1027 -1025 0
-1027 -1026 0
1027 1019 1020 1021 1022 1023 1024 1025 1026 0
-1028 25 0
-1028 26 0
-1028 30 0
-1028 31 0
-1028 73 0
-1028 74 0
-1028 78 0
-1028 79 0
1028 -25 -26 -30 -31 -73 -74 -78 -79 0
-1029 -1028 0
1029 1028 0
-1027 -1029 0
-1030 -55 0
-1030 -80 0
1030 55 80 0
-1031 -50 0
-1031 -51 0
-1031 -52 0
-1031 -53 0
-1031 -54 0
-1031 -76 0
-1031 -77 0
-1031 -78 0
-1031 -79 0
-1031 -81 0
-1031 -87 0
-1031 -88 0
-1031 -89 0
-1031 -96 0
1031 50 51 52 53 54 76 77 78 79 81 87 88 89 96 0
-1032 -49 0
-1032 -58 0
-1032 -63 0
-1032 -68 0
-1032 -71 0
-1032 -72 0
-1032 -75 0
-1032 -84 0
-1032 -92 0
-1032 -93 0
1032 49 58 63 68 71 72 75 84 92 93 0
-1033 -56 0
-1033 -57 0
-1033 -59 0
-1033 -60 0
-1033 -61 0
-1033 -62 0
-1033 -64 0
-1033 -65 0
-1033 -66 0
-1033 -67 0
-1033 -69 0
-1033 -70 0
-1033 -73 0
-1033 -74 0
-1033 -82 0
-1033 -83 0
-1033 -85 0
-1033 -86 0
-1033 -90 0
-1033 -91 0
-1033 -94 0
-1033 -95 0
1033 56 57 59 60 61 62 64 65 66 67 69 70 73 74 82 83 85 86 90 91 94 95 0
-1034 -7 0
-1034 -32 0
1034 7 32 0
-1035 -2 0
-1035 -3 0
-1035 -4 0
-1035 -5 0
-1035 -6 0
-1035 -28 0
-1035 -29 0
-1035 -30 0
-1035 -31 0
-1035 -33 0
-1035 -39 0
-1035 -40 0
-1035 -41 0
-1035 -48 0
1035 2 3 4 5 6 28 29 30 31 33 39 40 41 48 0
-1036 -1 0
-1036 -10 0
-1036 -15 0
-1036 -20 0
-1036 -23 0
-1036 -24 0
-1036 -27 0
-1036 -36 0
-1036 -44 0
-1036 -45 0
1036 1 10 15 20 23 24 27 36 44 45 0
-1037 -8 0
-1037 -9 0
-1037 -11 0
-1037 -12 0
-1037 -13 0
-1037 -14 0
-1037 -16 0
-1037 -17 0
-1037 -18 0
-1037 -19 0
-1037 -21 0
-1037 -22 0
-1037 -25 0
-1037 -26 0
-1037 -34 0
-1037 -35 0
-1037 -37 0
-1037 -38 0
-1037 -42 0
-1037 -43 0
-1037 -46 0
-1037 -47 0
1037 8 9 11 12 13 14 16 17 18 19 21 22 25 26 34 35 37 38 42 43 46 47 0
-1038 -1030 0
-1038 -1031 0
-1038 -1032 0
-1038 -1033 0
-1038 -1034 0
-1038 -1035 0
-1038 -1036 0
-1038 -1037 0
1038 1030 1031 1032 1033 1034 1035 1036 1037 0
-1039 26 0
-1039 27 0
-1039 31 0
-1039 32 0
-1039 74 0
-1039 75 0
-1039 79 0
-1039 80 0
1039 -26 -27 -31 -32 -74 -75 -79 -80 0
-1040 -1039 0
1040 1039 0
-1038 -1040 0
-1041 -51 0
-1041 -53 0
-1041 -54 0
-1041 -55 0
-1041 -77 0
-1041 -78 0
-1041 -79 0
-1041 -80 0
1041 51 53 54 55 77 78 79 80 0
-1042 -50 0
-1042 -52 0
-1042 -76 0
-1042 -81 0
-1042 -87 0
-1042 -88 0
-1042 -89 0
-1042 -96 0
1042 50 52 76 81 87 88 89 96 0
-1043 -49 0
-1043 -61 0
-1043 -62 0
-1043 -63 0
-1043 -64 0
-1043 -65 0
-1043 -66 0
-1043 -67 0
-1043 -68 0
-1043 -69 0
-1043 -70 0
-1043 -71 0
-1043 -72 0
-1043 -73 0
-1043 -74 0
-1043 -75 0
1043 49 61 62 63 64 65 66 67 68 69 70 71 72 73 74 75 0
-1044 -56 0
-1044 -57 0
-1044 -58 0
-1044 -59 0
-1044 -60 0
-1044 -82 0
-1044 -83 0
-1044 -84 0
-1044 -85 0
-1044 -86 0
-1044 -90 0
-1044 -91 0
-1044 -92 0
-1044 -93 0
-1044 -94 0
-1044 -95 0
1044 56 57 58 59 60 82 83 84 85 86 90 91 92 93 94 95 0
-1045 -3 0
-1045 -5 0
-1045 -6 0
-1045 -7 0
-1045 -29 0
-1045 -30 0
-1045 -31 0
-1045 -32 0
1045 3 5 6 7 29 30 31 32 0
-1046 -2 0
-1046 -4 0
-1046 -28 0
-1046 -33 0
-1046 -39 0
-1046 -40 0
-1046 -41 0
-1046 -48 0
1046 2 4 28 33 39 40 41 48 0
-1047 -1 0
-1047 -13 0
-1047 -14 0
-1047 -15 0
-1047 -16 0
-1047 -17 0
-1047 -18 0
-1047 -19 0
-1047 -20 0
-1047 -21 0
-1047 -22 0
-1047 -23 0
-1047 -24 0
-1047 -25 0
-1047 -26 0
-1047 -27 0
1047 1 13 14 15 16 17 18 19 20 21 22 23 24 25 26 27 0
-1048 -8 0
-1048 -9 0
-1048 -10 0
-1048 -11 0
-1048 -12 0
-1048 -34 0
-1048 -35 0
-1048 -36 0
-1048 -37 0
-1048 -38 0
-1048 -42 0
-1048 -43 0
-1048 -44 0
-1048 -45 0
-1048 -46 0
-1048 -47 0
1048 8 9 10 11 12 34 35 36 37 38 42 43 44 45 46 47 0
-1049 -1041 0
-1049 -1042 0
-1049 -1043 0
-1049 -1044 0
-1049 -1045 0
-1049 -1046 0
-1049 -1047 0
-1049 -1048 0
1049 1041 1042 1043 1044 1045 1046 1047 1048 0
-1050 12 0
-1050 17 0
-1050 28 0
-1050 29 0
-1050 60 0
-1050 65 0
-1050 76 0
-1050 77 0
1050 -12 -17 -28 -29 -60 -65 -76 -77 0
-1051 -1050 0
1051 1050 0
-1049 -1051 0
-1052 -52 0
-1052 -53 0
-1052 -54 0
-1052 -55 0
-1052 -78 0
-1052 -79 0
-1052 -80 0
1052 52 53 54 55 78 79 80 0
-1053 -50 0
-1053 -51 0
-1053 -76 0
-1053 -77 0
-1053 -81 0
-1053 -87 0
-1053 -88 0
-1053 -89 0
-1053 -96 0
1053 50 51 76 77 81 87 88 89 96 0
-1054 -49 0
-1054 -66 0
-1054 -67 0
-1054 -68 0
-1054 -69 0
-1054 -70 0
-1054 -71 0
-1054 -72 0
-1054 -73 0
-1054 -74 0
-1054 -75 0
1054 49 66 67 68 69 70 71 72 73 74 75 0
-1055 -56 0
-1055 -57 0
-1055 -58 0
-1055 -59 0
-1055 -60 0
-1055 -61 0
-1055 -62 0
-1055 -63 0
-1055 -64 0
-1055 -65 0
-1055 -82 0
-1055 -83 0
-1055 -84 0
-1055 -85 0
-1055 -86 0
-1055 -90 0
-1055 -91 0
-1055 -92 0
-1055 -93 0
-1055 -94 0
-1055 -95 0
1055 56 57 58 59 60 61 62 63 64 65 82 83 84 85 86 90 91 92 93 94 95 0
-1056 -4 0
-1056 -5 0
-1056 -6 0
-1056 -7 0
-1056 -30 0
-1056 -31 0
-1056 -32 0
1056 4 5 6 7 30 31 32 0
-1057 -2 0
-1057 -3 0
-1057 -28 0
-1057 -29 0
-1057 -33 0
-1057 -39 0
-1057 -40 0
-1057 -41 0
-1057 -48 0
1057 2 3 28 29 33 39 40 41 48 0
-1058 -1 0
-1058 -18 0
-1058 -19 0
-1058 -20 0
-1058 -21 0
-1058 -22 0
-1058 -23 0
-1058 -24 0
-1058 -25 0
-1058 -26 0
-1058 -27 0
1058 1 18 19 20 21 22 23 24 25 26 27 0
-1059 -8 0
-1059 -9 0
-1059 -10 0
-1059 -11 0
-1059 -12 0
-1059 -13 0
-1059 -14 0
-1059 -15 0
-1059 -16 0
-1059 -17 0
-1059 -34 0
-1059 -35 0
-1059 -36 0
-1059 -37 0
-1059 -38 0
-1059 -42 0
-1059 -43 0
-1059 -44 0
-1059 -45 0
-1059 -46 0
-1059 -47 0
1059 8 9 10 11 12 13 14 15 16 17 34 35 36 37 38 42 43 44 45 46 47 0
-1060 -1052 0
-1060 -1053 0
-1060 -1054 0
-1060 -1055 0
-1060 -1056 0
-1060 -1057 0
-1060 -1058 0
-1060 -1059 0
1060 1052 1053 1054 1055 1056 1057 1058 1059 0
-1061 17 0
-1061 25 0
-1061 29 0
-1061 30 0
-1061 65 0
-1061 73 0
-1061 77 0
-1061 78 0
1061 -17 -25 -29 -30 -65 -73 -77 -78 0
-1062 -1061 0
1062 1061 0
-1060 -1062 0
-1063 -56 0
-1063 -57 0
-1063 -58 0
-1063 -59 0
-1063 -60 0
-1063 -61 0
-1063 -62 0
-1063 -63 0
-1063 -64 0
-1063 -65 0
-1063 -66 0
-1063 -67 0
-1063 -68 0
-1063 -69 0
-1063 -70 0
-1063 -71 0
-1063 -72 0
-1063 -73 0
-1063 -74 0
-1063 -75 0
-1063 -76 0
-1063 -77 0
-1063 -78 0
-1063 -79 0
-1063 -80 0
-1063 -82 0
-1063 -83 0
-1063 -84 0
-1063 -85 0
-1063 -86 0
-1063 -87 0
-1063 -90 0
-1063 -91 0
-1063 -92 0
-1063 -93 0
-1063 -94 0
-1063 -95 0
-1063 -96 0
1063 56 57 58 59 60 61 62 63 64 65 66 67 68 69 70 71 72 73 74 75 76 77 78 79 80 82 83 84 85 86 87 90 91 92 93 94 95 96 0
-1064 -49 0
-1064 -50 0
-1064 -51 0
-1064 -52 0
-1064 -53 0
-1064 -54 0
-1064 -55 0
-1064 -81 0
-1064 -88 0
-1064 -89 0
1064 49 50 51 52 53 54 55 81 88 89 0
-1065 -8 0
-1065 -9 0
-1065 -10 0
-1065 -11 0
-1065 -12 0
-1065 -13 0
-1065 -14 0
-1065 -15 0
-1065 -16 0
-1065 -17 0
-1065 -18 0
-1065 -19 0
-1065 -20 0
-1065 -21 0
-1065 -22 0
-1065 -23 0
-1065 -24 0
-1065 -25 0
-1065 -26 0
-1065 -27 0
-1065 -28 0
-1065 -29 0
-1065 -30 0
-1065 -31 0
-1065 -32 0
-1065 -34 0
-1065 -35 0
-1065 -36 0
-1065 -37 0
-1065 -38 0
-1065 -39 0
-1065 -42 0
-1065 -43 0
-1065 -44 0
-1065 -45 0
-1065 -46 0
-1065 -47 0
-1065 -48 0
1065 8 9 10 11 12 13 14 15 16 17 18 19 20 21 22 23 24 25 26 27 28 29 30 31 32 34 35 36 37 38 39 42 43 44 45 46 47 48 0
-1066 -1 0
-1066 -2 0
-1066 -3 0
-1066 -4 0
-1066 -5 0
-1066 -6 0
-1066 -7 0
-1066 -33 0
-1066 -40 0
-1066 -41 0
1066 1 2 3 4 5 6 7 33 40 41 0
-1067 -1063 0
-1067 -1064 0
-1067 -1065 0
-1067 -1066 0
1067 1063 1064 1065 1066 0
-1068 1 0
-1068 27 0
-1068 49 0
-1068 75 0
1068 -1 -27 -49 -75 0
-1069 2 0
-1069 28 0
-1069 50 0
-1069 76 0
1069 -2 -28 -50 -76 0
-1070 3 0
-1070 29 0
-1070 51 0
-1070 77 0
1070 -3 -29 -51 -77 0
-1071 5 0
-1071 30 0
-1071 53 0
-1071 78 0
1071 -5 -30 -53 -78 0
-1072 6 0
-1072 31 0
-1072 54 0
-1072 79 0
1072 -6 -31 -54 -79 0
-1073 7 0
-1073 32 0
-1073 55 0
-1073 80 0
1073 -7 -32 -55 -80 0
-1074 33 0
-1074 39 0
-1074 81 0
-1074 87 0
1074 -33 -39 -81 -87 0
-1075 41 0
-1075 48 0
-1075 89 0
-1075 96 0
1075 -41 -48 -89 -96 0
-1076 -1068 0
-1076 -1069 0
-1076 -1070 0
-1076 -1071 0
-1076 -1072 0
-1076 -1073 0
-1076 -1074 0
-1076 -1075 0
1076 1068 1069 1070 1071 1072 1073 1074 1075 0
-1067 -1076 0
-1077 -57 0
-1077 -58 0
-1077 -62 0
-1077 -63 0
-1077 -67 0
-1077 -68 0
-1077 -70 0
-1077 -71 0
-1077 -72 0
-1077 -74 0
-1077 -75 0
-1077 -79 0
-1077 -80 0
-1077 -83 0
-1077 -84 0
-1077 -91 0
-1077 -93 0
1077 57 58 62 63 67 68 70 71 72 74 75 79 80 83 84 91 93 0
-1078 -56 0
-1078 -59 0
-1078 -60 0
-1078 -61 0
-1078 -64 0
-1078 -65 0
-1078 -66 0
-1078 -69 0
-1078 -73 0
-1078 -76 0
-1078 -77 0
-1078 -78 0
-1078 -82 0
-1078 -85 0
-1078 -86 0
-1078 -87 0
-1078 -90 0
-1078 -92 0
-1078 -94 0
-1078 -95 0
-1078 -96 0
1078 56 59 60 61 64 65 66 69 73 76 77 78 82 85 86 87 90 92 94 95 96 0
-1079 -49 0
-1079 -54 0
-1079 -55 0
1079 49 54 55 0
-1080 -50 0
-1080 -51 0
-1080 -52 0
-1080 -53 0
-1080 -81 0
-1080 -88 0
-1080 -89 0
1080 50 51 52 53 81 88 89 0
-1081 -9 0
-1081 -10 0
-1081 -14 0
-1081 -15 0
-1081 -19 0
-1081 -20 0
-1081 -22 0
-1081 -23 0
-1081 -24 0
-1081 -26 0
-1081 -27 0
-1081 -31 0
-1081 -32 0
-1081 -35 0
-1081 -36 0
-1081 -43 0
-1081 -45 0
1081 9 10 14 15 19 20 22 23 24 26 27 31 32 35 36 43 45 0
-1082 -8 0
-1082 -11 0
-1082 -12 0
-1082 -13 0
-1082 -16 0
-1082 -17 0
-1082 -18 0
-1082 -21 0
-1082 -25 0
-1082 -28 0
-1082 -29 0
-1082 -30 0
-1082 -34 0
-1082 -37 0
-1082 -38 0
-1082 -39 0
-1082 -42 0
-1082 -44 0
-1082 -46 0
-1082 -47 0
-1082 -48 0
1082 8 11 12 13 16 17 18 21 25 28 29 30 34 37 38 39 42 44 46 47 48 0
-1083 -1 0
-1083 -6 0
-1083 -7 0
1083 1 6 7 0
-1084 -2 0
-1084 -3 0
-1084 -4 0
-1084 -5 0
-1084 -33 0
-1084 -40 0
-1084 -41 0
1084 2 3 4 5 33 40 41 0
-1085 -1077 0
-1085 -1078 0
-1085 -1079 0
-1085 -1080 0
-1085 -1081 0
-1085 -1082 0
-1085 -1083 0
-1085 -1084 0
1085 1077 1078 1079 1080 1081 1082 1083 1084 0
-1086 5 0
-1086 6 0
-1086 30 0
-1086 31 0
-1086 53 0
-1086 54 0
-1086 78 0
-1086 79 0
1086 -5 -6 -30 -31 -53 -54 -78 -79 0
-1087 -1086 0
1087 1086 0
-1085 -1087 0
-1088 -58 0
-1088 -63 0
-1088 -68 0
-1088 -71 0
-1088 -72 0
-1088 -75 0
-1088 -80 0
-1088 -84 0
-1088 -92 0
-1088 -93 0
1088 58 63 68 71 72 75 80 84 92 93 0
-1089 -56 0
-1089 -57 0
-1089 -59 0
-1089 -60 0
-1089 -61 0
-1089 -62 0
-1089 -64 0
-1089 -65 0
-1089 -66 0
-1089 -67 0
-1089 -69 0
-1089 -70 0
-1089 -73 0
-1089 -74 0
-1089 -76 0
-1089 -77 0
-1089 -78 0
-1089 -79 0
-1089 -82 0
-1089 -83 0
-1089 -85 0
-1089 -86 0
-1089 -87 0
-1089 -90 0
-1089 -91 0
-1089 -94 0
-1089 -95 0
-1089 -96 0
1089 56 57 59 60 61 62 64 65 66 67 69 70 73 74 76 77 78 79 82 83 85 86 87 90 91 94 95 96 0
-1090 -49 0
-1090 -55 0
1090 49 55 0
-1091 -50 0
-1091 -51 0
-1091 -52 0
-1091 -53 0
-1091 -54 0
-1091 -81 0
-1091 -88 0
-1091 -89 0
1091 50 51 52 53 54 81 88 89 0
-1092 -10 0
-1092 -15 0
-1092 -20 0
-1092 -23 0
-1092 -24 0
-1092 -27 0
-1092 -32 0
-1092 -36 0
-1092 -44 0
-1092 -45 0
1092 10 15 20 23 24 27 32 36 44 45 0
-1093 -8 0
-1093 -9 0
-1093 -11 0
-1093 -12 0
-1093 -13 0
-1093 -14 0
-1093 -16 0
-1093 -17 0
-1093 -18 0
-1093 -19 0
-1093 -21 0
-1093 -22 0
-1093 -25 0
-1093 -26 0
-1093 -28 0
-1093 -29 0
-1093 -30 0
-1093 -31 0
-1093 -34 0
-1093 -35 0
-1093 -37 0
-1093 -38 0
-1093 -39 0
-1093 -42 0
-1093 -43 0
-1093 -46 0
-1093 -47 0
-1093 -48 0
1093 8 9 11 12 13 14 16 17 18 19 21 22 25 26 28 29 30 31 34 35 37 38 39 42 43 46 47 48 0
-1094 -1 0
-1094 -7 0
1094 1 7 0
-1095 -2 0
-1095 -3 0
-1095 -4 0
-1095 -5 0
-1095 -6 0
-1095 -33 0
-1095 -40 0
-1095 -41 0
1095 2 3 4 5 6 33 40 41 0
-1096 -1088 0
-1096 -1089 0
-1096 -1090 0
-1096 -1091 0
-1096 -1092 0
-1096 -1093 0
-1096 -1094 0
-1096 -1095 0
1096 1088 1089 1090 1091 1092 1093 1094 1095 0
-1097 6 0
-1097 7 0
-1097 31 0
-1097 32 0
-1097 54 0
-1097 55 0
-1097 79 0
-1097 80 0
1097 -6 -7 -31 -32 -54 -55 -79 -80 0
-1098 -1097 0
1098 1097 0
-1096 -1098 0
-1099 -61 0
-1099 -62 0
-1099 -63 0
-1099 -64 0
-1099 -65 0
-1099 -66 0
-1099 -67 0
-1099 -68 0
-1099 -69 0
-1099 -70 0
-1099 -71 0
-1099 -72 0
-1099 -73 0
-1099 -74 0
-1099 -75 0
-1099 -77 0
-1099 -78 0
-1099 -79 0
-1099 -80 0
1099 61 62 63 64 65 66 67 68 69 70 71 72 73 74 75 77 78 79 80 0
-1100 -56 0
-1100 -57 0
-1100 -58 0
-1100 -59 0
-1100 -60 0
-1100 -76 0
-1100 -82 0
-1100 -83 0
-1100 -84 0
-1100 -85 0
-1100 -86 0
-1100 -87 0
-1100 -90 0
-1100 -91 0
-1100 -92 0
-1100 -93 0
-1100 -94 0
-1100 -95 0
-1100 -96 0
1100 56 57 58 59 60 76 82 83 84 85 86 87 90 91 92 93 94 95 96 0
-1101 -49 0
-1101 -51 0
-1101 -53 0
-1101 -54 0
-1101 -55 0
1101 49 51 53 54 55 0
-1102 -50 0
-1102 -52 0
-1102 -81 0
-1102 -88 0
-1102 -89 0
1102 50 52 81 88 89 0
-1103 -13 0
-1103 -14 0
-1103 -15 0
-1103 -16 0
-1103 -17 0
-1103 -18 0
-1103 -19 0
-1103 -20 0
-1103 -21 0
-1103 -22 0
-1103 -23 0
-1103 -24 0
-1103 -25 0
-1103 -26 0
-1103 -27 0
-1103 -29 0
-1103 -30 0
-1103 -31 0
-1103 -32 0
1103 13 14 15 16 17 18 19 20 21 22 23 24 25 26 27 29 30 31 32 0
-1104 -8 0
-1104 -9 0
-1104 -10 0
-1104 -11 0
-1104 -12 0
-1104 -28 0
-1104 -34 0
-1104 -35 0
-1104 -36 0
-1104 -37 0
-1104 -38 0
-1104 -39 0
-1104 -42 0
-1104 -43 0
-1104 -44 0
-1104 -45 0
-1104 -46 0
-1104 -47 0
-1104 -48 0
1104 8 9 10 11 12 28 34 35 36 37 38 39 42 43 44 45 46 47 48 0
-1105 -1 0
-1105 -3 0
-1105 -5 0
-1105 -6 0
-1105 -7 0
1105 1 3 5 6 7 0
-1106 -2 0
-1106 -4 0
-1106 -33 0
-1106 -40 0
-1106 -41 0
1106 2 4 33 40 41 0
-1107 -1099 0
-1107 -1100 0
-1107 -1101 0
-1107 -1102 0
-1107 -1103 0
-1107 -1104 0
-1107 -1105 0
-1107 -1106 0
1107 1099 1100 1101 1102 1103 1104 1105 1106 0
-1108 2 0
-1108 3 0
-1108 28 0
-1108 29 0
-1108 50 0
-1108 51 0
-1108 76 0
-1108 77 0
1108 -2 -3 -28 -29 -50 -51 -76 -77 0
-1109 -1108 0
1109 1108 0
-1107 -1109 0
-1110 -66 0
-1110 -67 0
-1110 -68 0
-1110 -69 0
-1110 -70 0
-1110 -71 0
-1110 -72 0
-1110 -73 0
-1110 -74 0
-1110 -75 0
-1110 -78 0
-1110 -79 0
-1110 -80 0
1110 66 67 68 69 70 71 72 73 74 75 78 79 80 0
-1111 -56 0
-1111 -57 0
-1111 -58 0
-1111 -59 0
-1111 -60 0
-1111 -61 0
-1111 -62 0
-1111 -63 0
-1111 -64 0
-1111 -65 0
-1111 -76 0
-1111 -77 0
-1111 -82 0
-1111 -83 0
-1111 -84 0
-1111 -85 0
-1111 -86 0
-1111 -87 0
-1111 -90 0
-1111 -91 0
-1111 -92 0
-1111 -93 0
-1111 -94 0
-1111 -95 0
-1111 -96 0
1111 56 57 58 59 60 61 62 63 64 65 76 77 82 83 84 85 86 87 90 91 92 93 94 95 96 0
-1112 -49 0
-1112 -52 0
-1112 -53 0
-1112 -54 0
-1112 -55 0
1112 49 52 53 54 55 0
-1113 -50 0
-1113 -51 0
-1113 -81 0
-1113 -88 0
-1113 -89 0
1113 50 51 81 88 89 0
-1114 -18 0
-1114 -19 0
-1114 -20 0
-1114 -21 0
-1114 -22 0
-1114 -23 0
-1114 -24 0
-1114 -25 0
-1114 -26 0
-1114 -27 0
-1114 -30 0
-1114 -31 0
-1114 -32 0
1114 18 19 20 21 22 23 24 25 26 27 30 31 32 0
-1115 -8 0
-1115 -9 0
-1115 -10 0
-1115 -11 0
-1115 -12 0
-1115 -13 0
-1115 -14 0
-1115 -15 0
-1115 -16 0
-1115 -17 0
-1115 -28 0
-1115 -29 0
-1115 -34 0
-1115 -35 0
-1115 -36 0
-1115 -37 0
-1115 -38 0
-1115 -39 0
-1115 -42 0
-1115 -43 0
-1115 -44 0
-1115 -45 0
-1115 -46 0
-1115 -47 0
-1115 -48 0
1115 8 9 10 11 12 13 14 15 16 17 28 29 34 35 36 37 38 39 42 43 44 45 46 47 48 0
-1116 -1 0
-1116 -4 0
-1116 -5 0
-1116 -6 0
-1116 -7 0
1116 1 4 5 6 7 0
-1117 -2 0
-1117 -3 0
-1117 -33 0
-1117 -40 0
-1117 -41 0
1117 2 3 33 40 41 0
-1118 -1110 0
-1118 -1111 0
-1118 -1112 0
-1118 -1113 0
-1118 -1114 0
-1118 -1115 0
-1118 -1116 0
-1118 -1117 0
1118 1110 1111 1112 1113 1114 1115 1116 1117 0
-1119 3 0
-1119 5 0
-1119 29 0
-1119 30 0
-1119 51 0
-1119 53 0
-1119 77 0
-1119 78 0
1119 -3 -5 -29 -30 -51 -53 -77 -78 0
-1120 -1119 0
1120 1119 0
-1118 -1120 0
-1121 -76 0
-1121 -77 0
-1121 -78 0
-1121 -79 0
-1121 -80 0
-1121 -87 0
-1121 -96 0
1121 76 77 78 79 80 87 96 0
-1122 -56 0
-1122 -57 0
-1122 -58 0
-1122 -59 0
-1122 -60 0
-1122 -61 0
-1122 -62 0
-1122 -63 0
-1122 -64 0
-1122 -65 0
-1122 -66 0
-1122 -67 0
-1122 -68 0
-1122 -69 0
-1122 -70 0
-1122 -71 0
-1122 -72 0
-1122 -73 0
-1122 -74 0
-1122 -75 0
-1122 -82 0
-1122 -83 0
-1122 -84 0
-1122 -85 0
-1122 -86 0
-1122 -90 0
-1122 -91 0
-1122 -92 0
-1122 -93 0
-1122 -94 0
-1122 -95 0
1122 56 57 58 59 60 61 62 63 64 65 66 67 68 69 70 71 72 73 74 75 82 83 84 85 86 90 91 92 93 94 95 0
-1123 -50 0
-1123 -51 0
-1123 -52 0
-1123 -53 0
-1123 -54 0
-1123 -55 0
-1123 -81 0
-1123 -88 0
-1123 -89 0
1123 50 51 52 53 54 55 81 88 89 0
-1124 -49 0
1124 49 0
-1125 -28 0
-1125 -29 0
-1125 -30 0
-1125 -31 0
-1125 -32 0
-1125 -39 0
-1125 -48 0
1125 28 29 30 31 32 39 48 0
-1126 -8 0
-1126 -9 0
-1126 -10 0
-1126 -11 0
-1126 -12 0
-1126 -13 0
-1126 -14 0
-1126 -15 0
-1126 -16 0
-1126 -17 0
-1126 -18 0
-1126 -19 0
-1126 -20 0
-1126 -21 0
-1126 -22 0
-1126 -23 0
-1126 -24 0
-1126 -25 0
-1126 -26 0
-1126 -27 0
-1126 -34 0
-1126 -35 0
-1126 -36 0
-1126 -37 0
-1126 -38 0
-1126 -42 0
-1126 -43 0
-1126 -44 0
-1126 -45 0
-1126 -46 0
-1126 -47 0
1126 8 9 10 11 12 13 14 15 16 17 18 19 20 21 22 23 24 25 26 27 34 35 36 37 38 42 43 44 45 46 47 0
-1127 -2 0
-1127 -3 0
-1127 -4 0
-1127 -5 0
-1127 -6 0
-1127 -7 0
-1127 -33 0
-1127 -40 0
-1127 -41 0
1127 2 3 4 5 6 7 33 40 41 0
-1128 -1 0
1128 1 0
-1129 -1121 0
-1129 -1122 0
-1129 -1123 0
-1129 -1124 0
-1129 -1125 0
-1129 -1126 0
-1129 -1127 0
-1129 -1128 0
1129 1121 1122 1123 1124 1125 1126 1127 1128 0
-1130 1 0
-1130 7 0
-1130 27 0
-1130 32 0
-1130 49 0
-1130 55 0
-1130 75 0
-1130 80 0
1130 -1 -7 -27 -32 -49 -55 -75 -80 0
-1131 -1130 0
1131 1130 0
-1129 -1131 0
-1132 -81 0
-1132 -82 0
-1132 -83 0
-1132 -84 0
-1132 -85 0
-1132 -86 0
-1132 -87 0
-1132 -89 0
-1132 -90 0
-1132 -91 0
-1132 -92 0
-1132 -93 0
-1132 -94 0
-1132 -95 0
-1132 -96 0
1132 81 82 83 84 85 86 87 89 90 91 92 93 94 95 96 0
-1133 -49 0
-1133 -50 0
-1133 -51 0
-1133 -52 0
-1133 -53 0
-1133 -54 0
-1133 -55 0
-1133 -56 0
-1133 -57 0
-1133 -58 0
-1133 -59 0
-1133 -60 0
-1133 -61 0
-1133 -62 0
-1133 -63 0
-1133 -64 0
-1133 -65 0
-1133 -66 0
-1133 -67 0
-1133 -68 0
-1133 -69 0
-1133 -70 0
-1133 -71 0
-1133 -72 0
-1133 -73 0
-1133 -74 0
-1133 -75 0
-1133 -76 0
-1133 -77 0
-1133 -78 0
-1133 -79 0
-1133 -80 0
-1133 -88 0
1133 49 50 51 52 53 54 55 56 57 58 59 60 61 62 63 64 65 66 67 68 69 70 71 72 73 74 75 76 77 78 79 80 88 0
-1134 -33 0
-1134 -34 0
-1134 -35 0
-1134 -36 0
-1134 -37 0
-1134 -38 0
-1134 -39 0
-1134 -41 0
-1134 -42 0
-1134 -43 0
-1134 -44 0
-1134 -45 0
-1134 -46 0
-1134 -47 0
-1134 -48 0
1134 33 34 35 36 37 38 39 41 42 43 44 45 46 47 48 0
-1135 -1 0
-1135 -2 0
-1135 -3 0
-1135 -4 0
-1135 -5 0
-1135 -6 0
-1135 -7 0
-1135 -8 0
-1135 -9 0
-1135 -10 0
-1135 -11 0
-1135 -12 0
-1135 -13 0
-1135 -14 0
-1135 -15 0
-1135 -16 0
-1135 -17 0
-1135 -18 0
-1135 -19 0
-1135 -20 0
-1135 -21 0
-1135 -22 0
-1135 -23 0
-1135 -24 0
-1135 -25 0
-1135 -26 0
-1135 -27 0
-1135 -28 0
-1135 -29 0
-1135 -30 0
-1135 -31 0
-1135 -32 0
-1135 -40 0
1135 1 2 3 4 5 6 7 8 9 10 11 12 13 14 15 16 17 18 19 20 21 22 23 24 25 26 27 28 29 30 31 32 40 0
-1136 -1132 0
-1136 -1133 0
-1136 -1134 0
-1136 -1135 0
1136 1132 1133 1134 1135 0
-1137 2 0
-1137 33 0
-1137 50 0
-1137 81 0
1137 -2 -33 -50 -81 0
-1138 8 0
-1138 34 0
-1138 56 0
-1138 82 0
1138 -8 -34 -56 -82 0
-1139 9 0
-1139 35 0
-1139 57 0
-1139 83 0
1139 -9 -35 -57 -83 0
-1140 10 0
-1140 36 0
-1140 58 0
-1140 84 0
1140 -10 -36 -58 -84 0
-1141 11 0
-1141 37 0
-1141 59 0
-1141 85 0
1141 -11 -37 -59 -85 0
-1142 12 0
-1142 38 0
-1142 60 0
-1142 86 0
1142 -12 -38 -60 -86 0
-1143 28 0
-1143 39 0
-1143 76 0
-1143 87 0
1143 -28 -39 -76 -87 0
-1144 40 0
-1144 41 0
-1144 88 0
-1144 89 0
1144 -40 -41 -88 -89 0
-1145 -1137 0
-1145 -1138 0
-1145 -1139 0
-1145 -1140 0
-1145 -1141 0
-1145 -1142 0
-1145 -1143 0
-1145 -1144 0
1145 1137 1138 1139 1140 1141 1142 1143 1144 0
-1136 -1145 0
-1146 -83 0
-1146 -84 0
-1146 -91 0
-1146 -93 0
1146 83 84 91 93 0
-1147 -81 0
-1147 -82 0
-1147 -85 0
-1147 -86 0
-1147 -87 0
-1147 -89 0
-1147 -90 0
-1147 -92 0
-1147 -94 0
-1147 -95 0
-1147 -96 0
1147 81 82 85 86 87 89 90 92 94 95 96 0
-1148 -49 0
-1148 -54 0
-1148 -55 0
-1148 -57 0
-1148 -58 0
-1148 -62 0
-1148 -63 0
-1148 -67 0
-1148 -68 0
-1148 -70 0
-1148 -71 0
-1148 -72 0
-1148 -74 0
-1148 -75 0
-1148 -79 0
-1148 -80 0
1148 49 54 55 57 58 62 63 67 68 70 71 72 74 75 79 80 0
-1149 -50 0
-1149 -51 0
-1149 -52 0
-1149 -53 0
-1149 -56 0
-1149 -59 0
-1149 -60 0
-1149 -61 0
-1149 -64 0
-1149 -65 0
-1149 -66 0
-1149 -69 0
-1149 -73 0
-1149 -76 0
-1149 -77 0
-1149 -78 0
-1149 -88 0
1149 50 51 52 53 56 59 60 61 64 65 66 69 73 76 77 78 88 0
-1150 -35 0
-1150 -36 0
-1150 -43 0
-1150 -45 0
1150 35 36 43 45 0
-1151 -33 0
-1151 -34 0
-1151 -37 0
-1151 -38 0
-1151 -39 0
-1151 -41 0
-1151 -42 0
-1151 -44 0
-1151 -46 0
-1151 -47 0
-1151 -48 0
1151 33 34 37 38 39 41 42 44 46 47 48 0
-1152 -1 0
-1152 -6 0
-1152 -7 0
-1152 -9 0
-1152 -10 0
-1152 -14 0
-1152 -15 0
-1152 -19 0
-1152 -20 0
-1152 -22 0
-1152 -23 0
-1152 -24 0
-1152 -26 0
-1152 -27 0
-1152 -31 0
-1152 -32 0
1152 1 6 7 9 10 14 15 19 20 22 23 24 26 27 31 32 0
-1153 -2 0
-1153 -3 0
-1153 -4 0
-1153 -5 0
-1153 -8 0
-1153 -11 0
-1153 -12 0
-1153 -13 0
-1153 -16 0
-1153 -17 0
-1153 -18 0
-1153 -21 0
-1153 -25 0
-1153 -28 0
-1153 -29 0
-1153 -30 0
-1153 -40 0
1153 2 3 4 5 8 11 12 13 16 17 18 21 25 28 29 30 40 0
-1154 -1146 0
-1154 -1147 0
-1154 -1148 0
-1154 -1149 0
-1154 -1150 0
-1154 -1151 0
-1154 -1152 0
-1154 -1153 0
1154 1146 1147 1148 1149 1150 1151 1152 1153 0
-1155 8 0
-1155 9 0
-1155 34 0
-1155 35 0
-1155 56 0
-1155 57 0
-1155 82 0
-1155 83 0
1155 -8 -9 -34 -35 -56 -57 -82 -83 0
-1156 -1155 0
1156 1155 0
-1154 -1156 0
-1157 -84 0
-1157 -92 0
-1157 -93 0
1157 84 92 93 0
-1158 -81 0
-1158 -82 0
-1158 -83 0
-1158 -85 0
-1158 -86 0
-1158 -87 0
-1158 -89 0
-1158 -90 0
-1158 -91 0
-1158 -94 0
-1158 -95 0
-1158 -96 0
1158 81 82 83 85 86 87 89 90 91 94 95 96 0
-1159 -49 0
-1159 -55 0
-1159 -58 0
-1159 -63 0
-1159 -68 0
-1159 -71 0
-1159 -72 0
-1159 -75 0
-1159 -80 0
1159 49 55 58 63 68 71 72 75 80 0
-1160 -50 0
-1160 -51 0
-1160 -52 0
-1160 -53 0
-1160 -54 0
-1160 -56 0
-1160 -57 0
-1160 -59 0
-1160 -60 0
-1160 -61 0
-1160 -62 0
-1160 -64 0
-1160 -65 0
-1160 -66 0
-1160 -67 0
-1160 -69 0
-1160 -70 0
-1160 -73 0
-1160 -74 0
-1160 -76 0
-1160 -77 0
-1160 -78 0
-1160 -79 0
-1160 -88 0
1160 50 51 52 53 54 56 57 59 60 61 62 64 65 66 67 69 70 73 74 76 77 78 79 88 0
-1161 -36 0
-1161 -44 0
-1161 -45 0
1161 36 44 45 0
-1162 -33 0
-1162 -34 0
-1162 -35 0
-1162 -37 0
-1162 -38 0
-1162 -39 0
-1162 -41 0
-1162 -42 0
-1162 -43 0
-1162 -46 0
-1162 -47 0
-1162 -48 0
1162 33 34 35 37 38 39 41 42 43 46 47 48 0
-1163 -1 0
-1163 -7 0
-1163 -10 0
-1163 -15 0
-1163 -20 0
-1163 -23 0
-1163 -24 0
-1163 -27 0
-1163 -32 0
1163 1 7 10 15 20 23 24 27 32 0
-1164 -2 0
-1164 -3 0
-1164 -4 0
-1164 -5 0
-1164 -6 0
-1164 -8 0
-1164 -9 0
-1164 -11 0
-1164 -12 0
-1164 -13 0
-1164 -14 0
-1164 -16 0
-1164 -17 0
-1164 -18 0
-1164 -19 0
-1164 -21 0
-1164 -22 0
-1164 -25 0
-1164 -26 0
-1164 -28 0
-1164 -29 0
-1164 -30 0
-1164 -31 0
-1164 -40 0
1164 2 3 4 5 6 8 9 11 12 13 14 16 17 18 19 21 22 25 26 28 29 30 31 40 0
-1165 -1157 0
-1165 -1158 0
-1165 -1159 0
-1165 -1160 0
-1165 -1161 0
-1165 -1162 0
-1165 -1163 0
-1165 -1164 0
1165 1157 1158 1159 1160 1161 1162 1163 1164 0
-1166 9 0
-1166 10 0
-1166 35 0
-1166 36 0
-1166 57 0
-1166 58 0
-1166 83 0
-1166 84 0
1166 -9 -10 -35 -36 -57 -58 -83 -84 0
-1167 -1166 0
1167 1166 0
-1165 -1167 0
-1168 -81 0
-1168 -85 0
-1168 -86 0
-1168 -87 0
-1168 -89 0
-1168 -94 0
-1168 -95 0
-1168 -96 0
1168 81 85 86 87 89 94 95 96 0
-1169 -82 0
-1169 -83 0
-1169 -84 0
-1169 -90 0
-1169 -91 0
-1169 -92 0
-1169 -93 0
1169 82 83 84 90 91 92 93 0
-1170 -49 0
-1170 -50 0
-1170 -51 0
-1170 -52 0
-1170 -53 0
-1170 -54 0
-1170 -55 0
-1170 -59 0
-1170 -60 0
-1170 -64 0
-1170 -65 0
-1170 -69 0
-1170 -70 0
-1170 -71 0
-1170 -73 0
-1170 -74 0
-1170 -75 0
-1170 -76 0
-1170 -77 0
-1170 -78 0
-1170 -79 0
-1170 -80 0
-1170 -88 0
1170 49 50 51 52 53 54 55 59 60 64 65 69 70 71 73 74 75 76 77 78 79 80 88 0
-1171 -56 0
-1171 -57 0
-1171 -58 0
-1171 -61 0
-1171 -62 0
-1171 -63 0
-1171 -66 0
-1171 -67 0
-1171 -68 0
-1171 -72 0
1171 56 57 58 61 62 63 66 67 68 72 0
-1172 -33 0
-1172 -37 0
-1172 -38 0
-1172 -39 0
-1172 -41 0
-1172 -46 0
-1172 -47 0
-1172 -48 0
1172 33 37 38 39 41 46 47 48 0
-1173 -34 0
-1173 -35 0
-1173 -36 0
-1173 -42 0
-1173 -43 0
-1173 -44 0
-1173 -45 0
1173 34 35 36 42 43 44 45 0
-1174 -1 0
-1174 -2 0
-1174 -3 0
-1174 -4 0
-1174 -5 0
-1174 -6 0
-1174 -7 0
-1174 -11 0
-1174 -12 0
-1174 -16 0
-1174 -17 0
-1174 -21 0
-1174 -22 0
-1174 -23 0
-1174 -25 0
-1174 -26 0
-1174 -27 0
-1174 -28 0
-1174 -29 0
-1174 -30 0
-1174 -31 0
-1174 -32 0
-1174 -40 0
1174 1 2 3 4 5 6 7 11 12 16 17 21 22 23 25 26 27 28 29 30 31 32 40 0
-1175 -8 0
-1175 -9 0
-1175 -10 0
-1175 -13 0
-1175 -14 0
-1175 -15 0
-1175 -18 0
-1175 -19 0
-1175 -20 0
-1175 -24 0
1175 8 9 10 13 14 15 18 19 20 24 0
-1176 -1168 0
-1176 -1169 0
-1176 -1170 0
-1176 -1171 0
-1176 -1172 0
-1176 -1173 0
-1176 -1174 0
-1176 -1175 0
1176 1168 1169 1170 1171 1172 1173 1174 1175 0
-1177 8 0
-1177 11 0
-1177 34 0
-1177 37 0
-1177 56 0
-1177 59 0
-1177 82 0
-1177 85 0
1177 -8 -11 -34 -37 -56 -59 -82 -85 0
-1178 -1177 0
1178 1177 0
-1176 -1178 0
-1179 -81 0
-1179 -86 0
-1179 -87 0
-1179 -89 0
-1179 -95 0
-1179 -96 0
1179 81 86 87 89 95 96 0
-1180 -82 0
-1180 -83 0
-1180 -84 0
-1180 -85 0
-1180 -90 0
-1180 -91 0
-1180 -92 0
-1180 -93 0
-1180 -94 0
1180 82 83 84 85 90 91 92 93 94 0
-1181 -49 0
-1181 -50 0
-1181 -51 0
-1181 -52 0
-1181 -53 0
-1181 -54 0
-1181 -55 0
-1181 -60 0
-1181 -65 0
-1181 -72 0
-1181 -73 0
-1181 -74 0
-1181 -75 0
-1181 -76 0
-1181 -77 0
-1181 -78 0
-1181 -79 0
-1181 -80 0
-1181 -88 0
1181 49 50 51 52 53 54 55 60 65 72 73 74 75 76 77 78 79 80 88 0
-1182 -56 0
-1182 -57 0
-1182 -58 0
-1182 -59 0
-1182 -61 0
-1182 -62 0
-1182 -63 0
-1182 -64 0
-1182 -66 0
-1182 -67 0
-1182 -68 0
-1182 -69 0
-1182 -70 0
-1182 -71 0
1182 56 57 58 59 61 62 63 64 66 67 68 69 70 71 0
-1183 -33 0
-1183 -38 0
-1183 -39 0
-1183 -41 0
-1183 -47 0
-1183 -48 0
1183 33 38 39 41 47 48 0
-1184 -34 0
-1184 -35 0
-1184 -36 0
-1184 -37 0
-1184 -42 0
-1184 -43 0
-1184 -44 0
-1184 -45 0
-1184 -46 0
1184 34 35 36 37 42 43 44 45 46 0
-1185 -1 0
-1185 -2 0
-1185 -3 0
-1185 -4 0
-1185 -5 0
-1185 -6 0
-1185 -7 0
-1185 -12 0
-1185 -17 0
-1185 -24 0
-1185 -25 0
-1185 -26 0
-1185 -27 0
-1185 -28 0
-1185 -29 0
-1185 -30 0
-1185 -31 0
-1185 -32 0
-1185 -40 0
1185 1 2 3 4 5 6 7 12 17 24 25 26 27 28 29 30 31 32 40 0
-1186 -8 0
-1186 -9 0
-1186 -10 0
-1186 -11 0
-1186 -13 0
-1186 -14 0
-1186 -15 0
-1186 -16 0
-1186 -18 0
-1186 -19 0
-1186 -20 0
-1186 -21 0
-1186 -22 0
-1186 -23 0
1186 8 9 10 11 13 14 15 16 18 19 20 21 22 23 0
-1187 -1179 0
-1187 -1180 0
-1187 -1181 0
-1187 -1182 0
-1187 -1183 0
-1187 -1184 0
-1187 -1185 0
-1187 -1186 0
1187 1179 1180 1181 1182 1183 1184 1185 1186 0
-1188 11 0
-1188 12 0
-1188 37 0
-1188 38 0
-1188 59 0
-1188 60 0
-1188 85 0
-1188 86 0
1188 -11 -12 -37 -38 -59 -60 -85 -86 0
-1189 -1188 0
1189 1188 0
-1187 -1189 0
-1190 -81 0
-1190 -87 0
-1190 -89 0
-1190 -96 0
1190 81 87 89 96 0
-1191 -82 0
-1191 -83 0
-1191 -84 0
-1191 -85 0
-1191 -86 0
-1191 -90 0
-1191 -91 0
-1191 -92 0
-1191 -93 0
-1191 -94 0
-1191 -95 0
1191 82 83 84 85 86 90 91 92 93 94 95 0
-1192 -50 0
-1192 -51 0
-1192 -52 0
-1192 -53 0
-1192 -54 0
-1192 -55 0
-1192 -76 0
-1192 -77 0
-1192 -78 0
-1192 -79 0
-1192 -80 0
-1192 -88 0
1192 50 51 52 53 54 55 76 77 78 79 80 88 0
-1193 -49 0
-1193 -56 0
-1193 -57 0
-1193 -58 0
-1193 -59 0
-1193 -60 0
-1193 -61 0
-1193 -62 0
-1193 -63 0
-1193 -64 0
-1193 -65 0
-1193 -66 0
-1193 -67 0
-1193 -68 0
-1193 -69 0
-1193 -70 0
-1193 -71 0
-1193 -72 0
-1193 -73 0
-1193 -74 0
-1193 -75 0
1193 49 56 57 58 59 60 61 62 63 64 65 66 67 68 69 70 71 72 73 74 75 0
-1194 -33 0
-1194 -39 0
-1194 -41 0
-1194 -48 0
1194 33 39 41 48 0
-1195 -34 0
-1195 -35 0
-1195 -36 0
-1195 -37 0
-1195 -38 0
-1195 -42 0
-1195 -43 0
-1195 -44 0
-1195 -45 0
-1195 -46 0
-1195 -47 0
1195 34 35 36 37 38 42 43 44 45 46 47 0
-1196 -2 0
-1196 -3 0
-1196 -4 0
-1196 -5 0
-1196 -6 0
-1196 -7 0
-1196 -28 0
-1196 -29 0
-1196 -30 0
-1196 -31 0
-1196 -32 0
-1196 -40 0
1196 2 3 4 5 6 7 28 29 30 31 32 40 0
-1197 -1 0
-1197 -8 0
-1197 -9 0
-1197 -10 0
-1197 -11 0
-1197 -12 0
-1197 -13 0
-1197 -14 0
-1197 -15 0
-1197 -16 0
-1197 -17 0
-1197 -18 0
-1197 -19 0
-1197 -20 0
-1197 -21 0
-1197 -22 0
-1197 -23 0
-1197 -24 0
-1197 -25 0
-1197 -26 0
-1197 -27 0
1197 1 8 9 10 11 12 13 14 15 16 17 18 19 20 21 22 23 24 25 26 27 0
-1198 -1190 0
-1198 -1191 0
-1198 -1192 0
-1198 -1193 0
-1198 -1194 0
-1198 -1195 0
-1198 -1196 0
-1198 -1197 0
1198 1190 1191 1192 1193 1194 1195 1196 1197 0
-1199 12 0
-1199 28 0
-1199 38 0
-1199 39 0
-1199 60 0
-1199 76 0
-1199 86 0
-1199 87 0
1199 -12 -28 -38 -39 -60 -76 -86 -87 0
-1200 -1199 0
1200 1199 0
-1198 -1200 0
-1201 -82 0
-1201 -83 0
-1201 -84 0
-1201 -85 0
-1201 -86 0
-1201 -87 0
-1201 -90 0
-1201 -91 0
-1201 -92 0
-1201 -93 0
-1201 -94 0
-1201 -95 0
-1201 -96 0
1201 82 83 84 85 86 87 90 91 92 93 94 95 96 0
-1202 -81 0
-1202 -89 0
1202 81 89 0
-1203 -56 0
-1203 -57 0
-1203 -58 0
-1203 -59 0
-1203 -60 0
-1203 -61 0
-1203 -62 0
-1203 -63 0
-1203 -64 0
-1203 -65 0
-1203 -66 0
-1203 -67 0
-1203 -68 0
-1203 -69 0
-1203 -70 0
-1203 -71 0
-1203 -72 0
-1203 -73 0
-1203 -74 0
-1203 -75 0
-1203 -76 0
-1203 -77 0
-1203 -78 0
-1203 -79 0
-1203 -80 0
1203 56 57 58 59 60 61 62 63 64 65 66 67 68 69 70 71 72 73 74 75 76 77 78 79 80 0
-1204 -49 0
-1204 -50 0
-1204 -51 0
-1204 -52 0
-1204 -53 0
-1204 -54 0
-1204 -55 0
-1204 -88 0
1204 49 50 51 52 53 54 55 88 0
-1205 -34 0
-1205 -35 0
-1205 -36 0
-1205 -37 0
-1205 -38 0
-1205 -39 0
-1205 -42 0
-1205 -43 0
-1205 -44 0
-1205 -45 0
-1205 -46 0
-1205 -47 0
-1205 -48 0
1205 34 35 36 37 38 39 42 43 44 45 46 47 48 0
-1206 -33 0
-1206 -41 0
1206 33 41 0
-1207 -8 0
-1207 -9 0
-1207 -10 0
-1207 -11 0
-1207 -12 0
-1207 -13 0
-1207 -14 0
-1207 -15 0
-1207 -16 0
-1207 -17 0
-1207 -18 0
-1207 -19 0
-1207 -20 0
-1207 -21 0
-1207 -22 0
-1207 -23 0
-1207 -24 0
-1207 -25 0
-1207 -26 0
-1207 -27 0
-1207 -28 0
-1207 -29 0
-1207 -30 0
-1207 -31 0
-1207 -32 0
1207 8 9 10 11 12 13 14 15 16 17 18 19 20 21 22 23 24 25 26 27 28 29 30 31 32 0
-1208 -1 0
-1208 -2 0
-1208 -3 0
-1208 -4 0
-1208 -5 0
-1208 -6 0
-1208 -7 0
-1208 -40 0
1208 1 2 3 4 5 6 7 40 0
-1209 -1201 0
-1209 -1202 0
-1209 -1203 0
-1209 -1204 0
-1209 -1205 0
-1209 -1206 0
-1209 -1207 0
-1209 -1208 0
1209 1201 1202 1203 1204 1205 1206 1207 1208 0
-1210 2 0
-1210 28 0
-1210 33 0
-1210 39 0
-1210 50 0
-1210 76 0
-1210 81 0
-1210 87 0
1210 -2 -28 -33 -39 -50 -76 -81 -87 0
-1211 -1210 0
1211 1210 0
-1209 -1211 0
-1212 -88 0
-1212 -89 0
-1212 -90 0
-1212 -91 0
-1212 -92 0
-1212 -93 0
-1212 -94 0
-1212 -95 0
-1212 -96 0
1212 88 89 90 91 92 93 94 95 96 0
-1213 -49 0
-1213 -50 0
-1213 -51 0
-1213 -52 0
-1213 -53 0
-1213 -54 0
-1213 -55 0
-1213 -56 0
-1213 -57 0
-1213 -58 0
-1213 -59 0
-1213 -60 0
-1213 -61 0
-1213 -62 0
-1213 -63 0
-1213 -64 0
-1213 -65 0
-1213 -66 0
-1213 -67 0
-1213 -68 0
-1213 -69 0
-1213 -70 0
-1213 -71 0
-1213 -72 0
-1213 -73 0
-1213 -74 0
-1213 -75 0
-1213 -76 0
-1213 -77 0
-1213 -78 0
-1213 -79 0
-1213 -80 0
-1213 -81 0
-1213 -82 0
-1213 -83 0
-1213 -84 0
-1213 -85 0
-1213 -86 0
-1213 -87 0
1213 49 50 51 52 53 54 55 56 57 58 59 60 61 62 63 64 65 66 67 68 69 70 71 72 73 74 75 76 77 78 79 80 81 82 83 84 85 86 87 0
-1214 -40 0
-1214 -41 0
-1214 -42 0
-1214 -43 0
-1214 -44 0
-1214 -45 0
-1214 -46 0
-1214 -47 0
-1214 -48 0
1214 40 41 42 43 44 45 46 47 48 0
-1215 -1 0
-1215 -2 0
-1215 -3 0
-1215 -4 0
-1215 -5 0
-1215 -6 0
-1215 -7 0
-1215 -8 0
-1215 -9 0
-1215 -10 0
-1215 -11 0
-1215 -12 0
-1215 -13 0
-1215 -14 0
-1215 -15 0
-1215 -16 0
-1215 -17 0
-1215 -18 0
-1215 -19 0
-1215 -20 0
-1215 -21 0
-1215 -22 0
-1215 -23 0
-1215 -24 0
-1215 -25 0
-1215 -26 0
-1215 -27 0
-1215 -28 0
-1215 -29 0
-1215 -30 0
-1215 -31 0
-1215 -32 0
-1215 -33 0
-1215 -34 0
-1215 -35 0
-1215 -36 0
-1215 -37 0
-1215 -38 0
-1215 -39 0
1215 1 2 3 4 5 6 7 8 9 10 11 12 13 14 15 16 17 18 19 20 21 22 23 24 25 26 27 28 29 30 31 32 33 34 35 36 37 38 39 0
-1216 -1212 0
-1216 -1213 0
-1216 -1214 0
-1216 -1215 0
1216 1212 1213 1214 1215 0
-1217 2 0
-1217 40 0
-1217 50 0
-1217 88 0
1217 -2 -40 -50 -88 0
-1218 33 0
-1218 41 0
-1218 81 0
-1218 89 0
1218 -33 -41 -81 -89 0
-1219 34 0
-1219 42 0
-1219 82 0
-1219 90 0
1219 -34 -42 -82 -90 0
-1220 35 0
-1220 43 0
-1220 83 0
-1220 91 0
1220 -35 -43 -83 -91 0
-1221 36 0
-1221 45 0
-1221 84 0
-1221 93 0
1221 -36 -45 -84 -93 0
-1222 37 0
-1222 46 0
-1222 85 0
-1222 94 0
1222 -37 -46 -85 -94 0
-1223 38 0
-1223 47 0
-1223 86 0
-1223 95 0
1223 -38 -47 -86 -95 0
-1224 39 0
-1224 48 0
-1224 87 0
-1224 96 0
1224 -39 -48 -87 -96 0
-1225 -1217 0
-1225 -1218 0
-1225 -1219 0
-1225 -1220 0
-1225 -1221 0
-1225 -1222 0
-1225 -1223 0
-1225 -1224 0
1225 1217 1218 1219 1220 1221 1222 1223 1224 0
-1216 -1225 0
-1226 -91 0
-1226 -93 0
1226 91 93 0
-1227 -88 0
-1227 -89 0
-1227 -90 0
-1227 -92 0
-1227 -94 0
-1227 -95 0
-1227 -96 0
1227 88 89 90 92 94 95 96 0
-1228 -49 0
-1228 -54 0
-1228 -55 0
-1228 -57 0
-1228 -58 0
-1228 -62 0
-1228 -63 0
-1228 -67 0
-1228 -68 0
-1228 -70 0
-1228 -71 0
-1228 -72 0
-1228 -74 0
-1228 -75 0
-1228 -79 0
-1228 -80 0
-1228 -83 0
-1228 -84 0
1228 49 54 55 57 58 62 63 67 68 70 71 72 74 75 79 80 83 84 0
-1229 -50 0
-1229 -51 0
-1229 -52 0
-1229 -53 0
-1229 -56 0
-1229 -59 0
-1229 -60 0
-1229 -61 0
-1229 -64 0
-1229 -65 0
-1229 -66 0
-1229 -69 0
-1229 -73 0
-1229 -76 0
-1229 -77 0
-1229 -78 0
-1229 -81 0
-1229 -82 0
-1229 -85 0
-1229 -86 0
-1229 -87 0
1229 50 51 52 53 56 59 60 61 64 65 66 69 73 76 77 78 81 82 85 86 87 0
-1230 -43 0
-1230 -45 0
1230 43 45 0
-1231 -40 0
-1231 -41 0
-1231 -42 0
-1231 -44 0
-1231 -46 0
-1231 -47 0
-1231 -48 0
1231 40 41 42 44 46 47 48 0
-1232 -1 0
-1232 -6 0
-1232 -7 0
-1232 -9 0
-1232 -10 0
-1232 -14 0
-1232 -15 0
-1232 -19 0
-1232 -20 0
-1232 -22 0
-1232 -23 0
-1232 -24 0
-1232 -26 0
-1232 -27 0
-1232 -31 0
-1232 -32 0
-1232 -35 0
-1232 -36 0
1232 1 6 7 9 10 14 15 19 20 22 23 24 26 27 31 32 35 36 0
-1233 -2 0
-1233 -3 0
-1233 -4 0
-1233 -5 0
-1233 -8 0
-1233 -11 0
-1233 -12 0
-1233 -13 0
-1233 -16 0
-1233 -17 0
-1233 -18 0
-1233 -21 0
-1233 -25 0
-1233 -28 0
-1233 -29 0
-1233 -30 0
-1233 -33 0
-1233 -34 0
-1233 -37 0
-1233 -38 0
-1233 -39 0
1233 2 3 4 5 8 11 12 13 16 17 18 21 25 28 29 30 33 34 37 38 39 0
-1234 -1226 0
-1234 -1227 0
-1234 -1228 0
-1234 -1229 0
-1234 -1230 0
-1234 -1231 0
-1234 -1232 0
-1234 -1233 0
1234 1226 1227 1228 1229 1230 1231 1232 1233 0
-1235 34 0
-1235 35 0
-1235 42 0
-1235 43 0
-1235 82 0
-1235 83 0
-1235 90 0
-1235 91 0
1235 -34 -35 -42 -43 -82 -83 -90 -91 0
-1236 -1235 0
1236 1235 0
-1234 -1236 0
-1237 -92 0
-1237 -93 0
1237 92 93 0
-1238 -88 0
-1238 -89 0
-1238 -90 0
-1238 -91 0
-1238 -94 0
-1238 -95 0
-1238 -96 0
1238 88 89 90 91 94 95 96 0
-1239 -49 0
-1239 -55 0
-1239 -58 0
-1239 -63 0
-1239 -68 0
-1239 -71 0
-1239 -72 0
-1239 -75 0
-1239 -80 0
-1239 -84 0
1239 49 55 58 63 68 71 72 75 80 84 0
-1240 -50 0
-1240 -51 0
-1240 -52 0
-1240 -53 0
-1240 -54 0
-1240 -56 0
-1240 -57 0
-1240 -59 0
-1240 -60 0
-1240 -61 0
-1240 -62 0
-1240 -64 0
-1240 -65 0
-1240 -66 0
-1240 -67 0
-1240 -69 0
-1240 -70 0
-1240 -73 0
-1240 -74 0
-1240 -76 0
-1240 -77 0
-1240 -78 0
-1240 -79 0
-1240 -81 0
-1240 -82 0
-1240 -83 0
-1240 -85 0
-1240 -86 0
-1240 -87 0
1240 50 51 52 53 54 56 57 59 60 61 62 64 65 66 67 69 70 73 74 76 77 78 79 81 82 83 85 86 87 0
-1241 -44 0
-1241 -45 0
1241 44 45 0
-1242 -40 0
-1242 -41 0
-1242 -42 0
-1242 -43 0
-1242 -46 0
-1242 -47 0
-1242 -48 0
1242 40 41 42 43 46 47 48 0
-1243 -1 0
-1243 -7 0
-1243 -10 0
-1243 -15 0
-1243 -20 0
-1243 -23 0
-1243 -24 0
-1243 -27 0
-1243 -32 0
-1243 -36 0
1243 1 7 10 15 20 23 24 27 32 36 0
-1244 -2 0
-1244 -3 0
-1244 -4 0
-1244 -5 0
-1244 -6 0
-1244 -8 0
-1244 -9 0
-1244 -11 0
-1244 -12 0
-1244 -13 0
-1244 -14 0
-1244 -16 0
-1244 -17 0
-1244 -18 0
-1244 -19 0
-1244 -21 0
-1244 -22 0
-1244 -25 0
-1244 -26 0
-1244 -28 0
-1244 -29 0
-1244 -30 0
-1244 -31 0
-1244 -33 0
-1244 -34 0
-1244 -35 0
-1244 -37 0
-1244 -38 0
-1244 -39 0
1244 2 3 4 5 6 8 9 11 12 13 14 16 17 18 19 21 22 25 26 28 29 30 31 33 34 35 37 38 39 0
-1245 -1237 0
-1245 -1238 0
-1245 -1239 0
-1245 -1240 0
-1245 -1241 0
-1245 -1242 0
-1245 -1243 0
-1245 -1244 0
1245 1237 1238 1239 1240 1241 1242 1243 1244 0
-1246 35 0
-1246 36 0
-1246 43 0
-1246 45 0
-1246 83 0
-1246 84 0
-1246 91 0
-1246 93 0
1246 -35 -36 -43 -45 -83 -84 -91 -93 0
-1247 -1246 0
1247 1246 0
-1245 -1247 0
-1248 -88 0
-1248 -89 0
-1248 -94 0
-1248 -95 0
-1248 -96 0
1248 88 89 94 95 96 0
-1249 -90 0
-1249 -91 0
-1249 -92 0
-1249 -93 0
1249 90 91 92 93 0
-1250 -49 0
-1250 -50 0
-1250 -51 0
-1250 -52 0
-1250 -53 0
-1250 -54 0
-1250 -55 0
-1250 -59 0
-1250 -60 0
-1250 -64 0
-1250 -65 0
-1250 -69 0
-1250 -70 0
-1250 -71 0
-1250 -73 0
-1250 -74 0
-1250 -75 0
-1250 -76 0
-1250 -77 0
-1250 -78 0
-1250 -79 0
-1250 -80 0
-1250 -81 0
-1250 -85 0
-1250 -86 0
-1250 -87 0
1250 49 50 51 52 53 54 55 59 60 64 65 69 70 71 73 74 75 76 77 78 79 80 81 85 86 87 0
-1251 -56 0
-1251 -57 0
-1251 -58 0
-1251 -61 0
-1251 -62 0
-1251 -63 0
-1251 -66 0
-1251 -67 0
-1251 -68 0
-1251 -72 0
-1251 -82 0
-1251 -83 0
-1251 -84 0
1251 56 57 58 61 62 63 66 67 68 72 82 83 84 0
-1252 -40 0
-1252 -41 0
-1252 -46 0
-1252 -47 0
-1252 -48 0
1252 40 41 46 47 48 0
-1253 -42 0
-1253 -43 0
-1253 -44 0
-1253 -45 0
1253 42 43 44 45 0
-1254 -1 0
-1254 -2 0
-1254 -3 0
-1254 -4 0
-1254 -5 0
-1254 -6 0
-1254 -7 0
-1254 -11 0
-1254 -12 0
-1254 -16 0
-1254 -17 0
-1254 -21 0
-1254 -22 0
-1254 -23 0
-1254 -25 0
-1254 -26 0
-1254 -27 0
-1254 -28 0
-1254 -29 0
-1254 -30 0
-1254 -31 0
-1254 -32 0
-1254 -33 0
-1254 -37 0
-1254 -38 0
-1254 -39 0
1254 1 2 3 4 5 6 7 11 12 16 17 21 22 23 25 26 27 28 29 30 31 32 33 37 38 39 0
-1255 -8 0
-1255 -9 0
-1255 -10 0
-1255 -13 0
-1255 -14 0
-1255 -15 0
-1255 -18 0
-1255 -19 0
-1255 -20 0
-1255 -24 0
-1255 -34 0
-1255 -35 0
-1255 -36 0
1255 8 9 10 13 14 15 18 19 20 24 34 35 36 0
-1256 -1248 0
-1256 -1249 0
-1256 -1250 0
-1256 -1251 0
-1256 -1252 0
-1256 -1253 0
-1256 -1254 0
-1256 -1255 0
1256 1248 1249 1250 1251 1252 1253 1254 1255 0
-1257 34 0
-1257 37 0
-1257 42 0
-1257 46 0
-1257 82 0
-1257 85 0
-1257 90 0
-1257 94 0
1257 -34 -37 -42 -46 -82 -85 -90 -94 0
-1258 -1257 0
1258 1257 0
-1256 -1258 0
-1259 -88 0
-1259 -89 0
-1259 -95 0
-1259 -96 0
1259 88 89 95 96 0
-1260 -90 0
-1260 -91 0
-1260 -92 0
-1260 -93 0
-1260 -94 0
1260 90 91 92 93 94 0
-1261 -49 0
-1261 -50 0
-1261 -51 0
-1261 -52 0
-1261 -53 0
-1261 -54 0
-1261 -55 0
-1261 -60 0
-1261 -65 0
-1261 -72 0
-1261 -73 0
-1261 -74 0
-1261 -75 0
-1261 -76 0
-1261 -77 0
-1261 -78 0
-1261 -79 0
-1261 -80 0
-1261 -81 0
-1261 -86 0
-1261 -87 0
1261 49 50 51 52 53 54 55 60 65 72 73 74 75 76 77 78 79 80 81 86 87 0
-1262 -56 0
-1262 -57 0
-1262 -58 0
-1262 -59 0
-1262 -61 0
-1262 -62 0
-1262 -63 0
-1262 -64 0
-1262 -66 0
-1262 -67 0
-1262 -68 0
-1262 -69 0
-1262 -70 0
-1262 -71 0
-1262 -82 0
-1262 -83 0
-1262 -84 0
-1262 -85 0
1262 56 57 58 59 61 62 63 64 66 67 68 69 70 71 82 83 84 85 0
-1263 -40 0
-1263 -41 0
-1263 -47 0
-1263 -48 0
1263 40 41 47 48 0
-1264 -42 0
-1264 -43 0
-1264 -44 0
-1264 -45 0
-1264 -46 0
1264 42 43 44 45 46 0
-1265 -1 0
-1265 -2 0
-1265 -3 0
-1265 -4 0
-1265 -5 0
-1265 -6 0
-1265 -7 0
-1265 -12 0
-1265 -17 0
-1265 -24 0
-1265 -25 0
-1265 -26 0
-1265 -27 0
-1265 -28 0
-1265 -29 0
-1265 -30 0
-1265 -31 0
-1265 -32 0
-1265 -33 0
-1265 -38 0
-1265 -39 0
1265 1 2 3 4 5 6 7 12 17 24 25 26 27 28 29 30 31 32 33 38 39 0
-1266 -8 0
-1266 -9 0
-1266 -10 0
-1266 -11 0
-1266 -13 0
-1266 -14 0
-1266 -15 0
-1266 -16 0
-1266 -18 0
-1266 -19 0
-1266 -20 0
-1266 -21 0
-1266 -22 0
-1266 -23 0
-1266 -34 0
-1266 -35 0
-1266 -36 0
-1266 -37 0
1266 8 9 10 11 13 14 15 16 18 19 20 21 22 23 34 35 36 37 0
-1267 -1259 0
-1267 -1260 0
-1267 -1261 0
-1267 -1262 0
-1267 -1263 0
-1267 -1264 0
-1267 -1265 0
-1267 -1266 0
1267 1259 1260 1261 1262 1263 1264 1265 1266 0
-1268 37 0
-1268 38 0
-1268 46 0
-1268 47 0
-1268 85 0
-1268 86 0
-1268 94 0
-1268 95 0
1268 -37 -38 -46 -47 -85 -86 -94 -95 0
-1269 -1268 0
1269 1268 0
-1267 -1269 0
-1270 -88 0
-1270 -89 0
-1270 -96 0
1270 88 89 96 0
-1271 -90 0
-1271 -91 0
-1271 -92 0
-1271 -93 0
-1271 -94 0
-1271 -95 0
1271 90 91 92 93 94 95 0
-1272 -50 0
-1272 -51 0
-1272 -52 0
-1272 -53 0
-1272 -54 0
-1272 -55 0
-1272 -76 0
-1272 -77 0
-1272 -78 0
-1272 -79 0
-1272 -80 0
-1272 -81 0
-1272 -87 0
1272 50 51 52 53 54 55 76 77 78 79 80 81 87 0
-1273 -49 0
-1273 -56 0
-1273 -57 0
-1273 -58 0
-1273 -59 0
-1273 -60 0
-1273 -61 0
-1273 -62 0
-1273 -63 0
-1273 -64 0
-1273 -65 0
-1273 -66 0
-1273 -67 0
-1273 -68 0
-1273 -69 0
-1273 -70 0
-1273 -71 0
-1273 -72 0
-1273 -73 0
-1273 -74 0
-1273 -75 0
-1273 -82 0
-1273 -83 0
-1273 -84 0
-1273 -85 0
-1273 -86 0
1273 49 56 57 58 59 60 61 62 63 64 65 66 67 68 69 70 71 72 73 74 75 82 83 84 85 86 0
-1274 -40 0
-1274 -41 0
-1274 -48 0
1274 40 41 48 0
-1275 -42 0
-1275 -43 0
-1275 -44 0
-1275 -45 0
-1275 -46 0
-1275 -47 0
1275 42 43 44 45 46 47 0
-1276 -2 0
-1276 -3 0
-1276 -4 0
-1276 -5 0
-1276 -6 0
-1276 -7 0
-1276 -28 0
-1276 -29 0
-1276 -30 0
-1276 -31 0
-1276 -32 0
-1276 -33 0
-1276 -39 0
1276 2 3 4 5 6 7 28 29 30 31 32 33 39 0
-1277 -1 0
-1277 -8 0
-1277 -9 0
-1277 -10 0
-1277 -11 0
-1277 -12 0
-1277 -13 0
-1277 -14 0
-1277 -15 0
-1277 -16 0
-1277 -17 0
-1277 -18 0
-1277 -19 0
-1277 -20 0
-1277 -21 0
-1277 -22 0
-1277 -23 0
-1277 -24 0
-1277 -25 0
-1277 -26 0
-1277 -27 0
-1277 -34 0
-1277 -35 0
-1277 -36 0
-1277 -37 0
-1277 -38 0
1277 1 8 9 10 11 12 13 14 15 16 17 18 19 20 21 22 23 24 25 26 27 34 35 36 37 38 0
-1278 -1270 0
-1278 -1271 0
-1278 -1272 0
-1278 -1273 0
-1278 -1274 0
-1278 -1275 0
-1278 -1276 0
-1278 -1277 0
1278 1270 1271 1272 1273 1274 1275 1276 1277 0
-1279 38 0
-1279 39 0
-1279 47 0
-1279 48 0
-1279 86 0
-1279 87 0
-1279 95 0
-1279 96 0
1279 -38 -39 -47 -48 -86 -87 -95 -96 0
-1280 -1279 0
1280 1279 0
-1278 -1280 0
-1281 -90 0
-1281 -91 0
-1281 -92 0
-1281 -93 0
-1281 -94 0
-1281 -95 0
-1281 -96 0
1281 90 91 92 93 94 95 96 0
-1282 -88 0
-1282 -89 0
1282 88 89 0
-1283 -56 0
-1283 -57 0
-1283 -58 0
-1283 -59 0
-1283 -60 0
-1283 -61 0
-1283 -62 0
-1283 -63 0
-1283 -64 0
-1283 -65 0
-1283 -66 0
-1283 -67 0
-1283 -68 0
-1283 -69 0
-1283 -70 0
-1283 -71 0
-1283 -72 0
-1283 -73 0
-1283 -74 0
-1283 -75 0
-1283 -76 0
-1283 -77 0
-1283 -78 0
-1283 -79 0
-1283 -80 0
-1283 -82 0
-1283 -83 0
-1283 -84 0
-1283 -85 0
-1283 -86 0
-1283 -87 0
1283 56 57 58 59 60 61 62 63 64 65 66 67 68 69 70 71 72 73 74 75 76 77 78 79 80 82 83 84 85 86 87 0
-1284 -49 0
-1284 -50 0
-1284 -51 0
-1284 -52 0
-1284 -53 0
-1284 -54 0
-1284 -55 0
-1284 -81 0
1284 49 50 51 52 53 54 55 81 0
-1285 -42 0
-1285 -43 0
-1285 -44 0
-1285 -45 0
-1285 -46 0
-1285 -47 0
-1285 -48 0
1285 42 43 44 45 46 47 48 0
-1286 -40 0
-1286 -41 0
1286 40 41 0
-1287 -8 0
-1287 -9 0
-1287 -10 0
-1287 -11 0
-1287 -12 0
-1287 -13 0
-1287 -14 0
-1287 -15 0
-1287 -16 0
-1287 -17 0
-1287 -18 0
-1287 -19 0
-1287 -20 0
-1287 -21 0
-1287 -22 0
-1287 -23 0
-1287 -24 0
-1287 -25 0
-1287 -26 0
-1287 -27 0
-1287 -28 0
-1287 -29 0
-1287 -30 0
-1287 -31 0
-1287 -32 0
-1287 -34 0
-1287 -35 0
-1287 -36 0
-1287 -37 0
-1287 -38 0
-1287 -39 0
1287 8 9 10 11 12 13 14 15 16 17 18 19 20 21 22 23 24 25 26 27 28 29 30 31 32 34 35 36 37 38 39 0
-1288 -1 0
-1288 -2 0
-1288 -3 0
-1288 -4 0
-1288 -5 0
-1288 -6 0
-1288 -7 0
-1288 -33 0
1288 1 2 3 4 5 6 7 33 0
-1289 -1281 0
-1289 -1282 0
-1289 -1283 0
-1289 -1284 0
-1289 -1285 0
-1289 -1286 0
-1289 -1287 0
-1289 -1288 0
1289 1281 1282 1283 1284 1285 1286 1287 1288 0
-1290 33 0
-1290 39 0
-1290 41 0
-1290 48 0
-1290 81 0
-1290 87 0
-1290 89 0
-1290 96 0
1290 -33 -39 -41 -48 -81 -87 -89 -96 0
-1291 -1290 0
1291 1290 0
-1289 -1291 0
-1292 -89 0
-1292 -90 0
-1292 -91 0
-1292 -92 0
-1292 -93 0
-1292 -94 0
-1292 -95 0
-1292 -96 0
1292 89 90 91 92 93 94 95 96 0
-1293 -88 0
1293 88 0
-1294 -81 0
-1294 -82 0
-1294 -83 0
-1294 -84 0
-1294 -85 0
-1294 -86 0
-1294 -87 0
1294 81 82 83 84 85 86 87 0
-1295 -49 0
-1295 -50 0
-1295 -51 0
-1295 -52 0
-1295 -53 0
-1295 -54 0
-1295 -55 0
-1295 -56 0
-1295 -57 0
-1295 -58 0
-1295 -59 0
-1295 -60 0
-1295 -61 0
-1295 -62 0
-1295 -63 0
-1295 -64 0
-1295 -65 0
-1295 -66 0
-1295 -67 0
-1295 -68 0
-1295 -69 0
-1295 -70 0
-1295 -71 0
-1295 -72 0
-1295 -73 0
-1295 -74 0
-1295 -75 0
-1295 -76 0
-1295 -77 0
-1295 -78 0
-1295 -79 0
-1295 -80 0
1295 49 50 51 52 53 54 55 56 57 58 59 60 61 62 63 64 65 66 67 68 69 70 71 72 73 74 75 76 77 78 79 80 0
-1296 -41 0
-1296 -42 0
-1296 -43 0
-1296 -44 0
-1296 -45 0
-1296 -46 0
-1296 -47 0
-1296 -48 0
1296 41 42 43 44 45 46 47 48 0
-1297 -40 0
1297 40 0
-1298 -33 0
-1298 -34 0
-1298 -35 0
-1298 -36 0
-1298 -37 0
-1298 -38 0
-1298 -39 0
1298 33 34 35 36 37 38 39 0
-1299 -1 0
-1299 -2 0
-1299 -3 0
-1299 -4 0
-1299 -5 0
-1299 -6 0
-1299 -7 0
-1299 -8 0
-1299 -9 0
-1299 -10 0
-1299 -11 0
-1299 -12 0
-1299 -13 0
-1299 -14 0
-1299 -15 0
-1299 -16 0
-1299 -17 0
-1299 -18 0
-1299 -19 0
-1299 -20 0
-1299 -21 0
-1299 -22 0
-1299 -23 0
-1299 -24 0
-1299 -25 0
-1299 -26 0
-1299 -27 0
-1299 -28 0
-1299 -29 0
-1299 -30 0
-1299 -31 0
-1299 -32 0
1299 1 2 3 4 5 6 7 8 9 10 11 12 13 14 15 16 17 18 19 20 21 22 23 24 25 26 27 28 29 30 31 32 0
-1300 -1292 0
-1300 -1293 0
-1300 -1294 0
-1300 -1295 0
-1300 -1296 0
-1300 -1297 0
-1300 -1298 0
-1300 -1299 0
1300 1292 1293 1294 1295 1296 1297 1298 1299 0
-1301 2 0
-1301 33 0
-1301 40 0
-1301 41 0
-1301 50 0
-1301 81 0
-1301 88 0
-1301 89 0
1301 -2 -33 -40 -41 -50 -81 -88 -89 0
-1302 -1301 0
1302 1301 0
-1300 -1302 0
-1303 7 0
-1303 27 0
-1303 -32 0
1303 -7 -27 32 0
-1304 7 0
-1304 49 0
-1304 -55 0
1304 -7 -49 55 0
-1305 27 0
-1305 49 0
-1305 -75 0
1305 -27 -49 75 0
-1306 7 0
-1306 27 0
-1306 49 0
-1306 -80 0
1306 -7 -27 -49 80 0
-1 1303 1304 1305 1306 0
-1307 3 0
-1307 4 0
-1307 -5 0
1307 -3 -4 5 0
-1308 3 0
-1308 28 0
-1308 -29 0
1308 -3 -28 29 0
-1309 3 0
-1309 33 0
1309 -3 -33 0
-1310 3 0
-1310 40 0
1310 -3 -40 0
-1311 3 0
-1311 50 0
-1311 -51 0
1311 -3 -50 51 0
-1312 4 0
-1312 28 0
1312 -4 -28 0
-1313 4 0
-1313 33 0
1313 -4 -33 0
-1314 4 0
-1314 40 0
1314 -4 -40 0
-1315 4 0
-1315 50 0
-1315 -52 0
1315 -4 -50 52 0
-1316 28 0
-1316 33 0
-1316 -39 0
1316 -28 -33 39 0
-1317 28 0
-1317 40 0
1317 -28 -40 0
-1318 28 0
-1318 50 0
-1318 -76 0
1318 -28 -50 76 0
-1319 33 0
-1319 40 0
-1319 -41 0
1319 -33 -40 41 0
-1320 33 0
-1320 50 0
-1320 -81 0
1320 -33 -50 81 0
-1321 40 0
-1321 50 0
-1321 -88 0
1321 -40 -50 88 0
-1322 3 0
-1322 4 0
-1322 28 0
-1322 -30 0
1322 -3 -4 -28 30 0
-1323 3 0
-1323 4 0
-1323 33 0
1323 -3 -4 -33 0
-1324 3 0
-1324 4 0
-1324 40 0
1324 -3 -4 -40 0
-1325 3 0
-1325 4 0
-1325 50 0
-1325 -53 0
1325 -3 -4 -50 53 0
-1326 3 0
-1326 28 0
-1326 33 0
1326 -3 -28 -33 0
-1327 3 0
-1327 28 0
-1327 40 0
1327 -3 -28 -40 0
-1328 3 0
-1328 28 0
-1328 50 0
-1328 -77 0
1328 -3 -28 -50 77 0
-1329 3 0
-1329 33 0
-1329 40 0
1329 -3 -33 -40 0
-1330 3 0
-1330 33 0
-1330 50 0
1330 -3 -33 -50 0
-1331 3 0
-1331 40 0
-1331 50 0
1331 -3 -40 -50 0
-1332 4 0
-1332 28 0
-1332 33 0
1332 -4 -28 -33 0
-1333 4 0
-1333 28 0
-1333 40 0
1333 -4 -28 -40 0
-1334 4 0
-1334 28 0
-1334 50 0
1334 -4 -28 -50 0
-1335 4 0
-1335 33 0
-1335 40 0
1335 -4 -33 -40 0
-1336 4 0
-1336 33 0
-1336 50 0
1336 -4 -33 -50 0
-1337 4 0
-1337 40 0
-1337 50 0
1337 -4 -40 -50 0
-1338 28 0
-1338 33 0
-1338 40 0
-1338 -48 0
1338 -28 -33 -40 48 0
-1339 28 0
-1339 33 0
-1339 50 0
-1339 -87 0
1339 -28 -33 -50 87 0
-1340 28 0
-1340 40 0
-1340 50 0
1340 -28 -40 -50 0
-1341 33 0
-1341 40 0
-1341 50 0
-1341 -89 0
1341 -33 -40 -50 89 0
-1342 3 0
-1342 4 0
-1342 28 0
-1342 33 0
1342 -3 -4 -28 -33 0
-1343 3 0
-1343 4 0
-1343 28 0
-1343 40 0
1343 -3 -4 -28 -40 0
-1344 3 0
-1344 4 0
-1344 28 0
-1344 50 0
-1344 -78 0
1344 -3 -4 -28 -50 78 0
-1345 3 0
-1345 4 0
-1345 33 0
-1345 40 0
1345 -3 -4 -33 -40 0
-1346 3 0
-1346 4 0
-1346 33 0
-1346 50 0
1346 -3 -4 -33 -50 0
-1347 3 0
-1347 4 0
-1347 40 0
-1347 50 0
1347 -3 -4 -40 -50 0
-1348 3 0
-1348 28 0
-1348 33 0
-1348 40 0
1348 -3 -28 -33 -40 0
-1349 3 0
-1349 28 0
-1349 33 0
-1349 50 0
1349 -3 -28 -33 -50 0
-1350 3 0
-1350 28 0
-1350 40 0
-1350 50 0
1350 -3 -28 -40 -50 0
-1351 3 0
-1351 33 0
-1351 40 0
-1351 50 0
1351 -3 -33 -40 -50 0
-1352 4 0
-1352 28 0
-1352 33 0
-1352 40 0
1352 -4 -28 -33 -40 0
-1353 4 0
-1353 28 0
-1353 33 0
-1353 50 0
1353 -4 -28 -33 -50 0
-1354 4 0
-1354 28 0
-1354 40 0
-1354 50 0
1354 -4 -28 -40 -50 0
-1355 4 0
-1355 33 0
-1355 40 0
-1355 50 0
1355 -4 -33 -40 -50 0
-1356 28 0
-1356 33 0
-1356 40 0
-1356 50 0
-1356 -96 0
1356 -28 -33 -40 -50 96 0
-1357 3 0
-1357 4 0
-1357 28 0
-1357 33 0
-1357 40 0
1357 -3 -4 -28 -33 -40 0
-1358 3 0
-1358 4 0
-1358 28 0
-1358 33 0
-1358 50 0
1358 -3 -4 -28 -33 -50 0
-1359 3 0
-1359 4 0
-1359 28 0
-1359 40 0
-1359 50 0
1359 -3 -4 -28 -40 -50 0
-1360 3 0
-1360 4 0
-1360 33 0
-1360 40 0
-1360 50 0
1360 -3 -4 -33 -40 -50 0
-1361 3 0
-1361 28 0
-1361 33 0
-1361 40 0
-1361 50 0
1361 -3 -28 -33 -40 -50 0
-1362 4 0
-1362 28 0
-1362 33 0
-1362 40 0
-1362 50 0
1362 -4 -28 -33 -40 -50 0
-1363 3 0
-1363 4 0
-1363 28 0
-1363 33 0
-1363 40 0
-1363 50 0
1363 -3 -4 -28 -33 -40 -50 0
-2 1307 1308 1309 1310 1311 1312 1313 1314 1315 1316 1317 1318 1319 1320 1321 1322 1323 1324 1325 1326 1327 1328 1329 1330 1331 1332 1333 1334 1335 1336 1337 1338 1339 1340 1341 1342 1343 1344 1345 1346 1347 1348 1349 1350 1351 1352 1353 1354 1355 1356 1357 1358 1359 1360 1361 1362 1363 0
-1364 2 0
-1364 5 0
-1364 -4 0
1364 -2 -5 4 0
-1365 2 0
-1365 29 0
-1365 -28 0
1365 -2 -29 28 0
-1366 2 0
-1366 51 0
-1366 -50 0
1366 -2 -51 50 0
-1367 5 0
-1367 29 0
-1367 -30 0
1367 -5 -29 30 0
-1368 5 0
-1368 51 0
-1368 -53 0
1368 -5 -51 53 0
-1369 29 0
-1369 51 0
-1369 -77 0
1369 -29 -51 77 0
-1370 2 0
-1370 5 0
-1370 29 0
1370 -2 -5 -29 0
-1371 2 0
-1371 5 0
-1371 51 0
-1371 -52 0
1371 -2 -5 -51 52 0
-1372 2 0
-1372 29 0
-1372 51 0
-1372 -76 0
1372 -2 -29 -51 76 0
-1373 5 0
-1373 29 0
-1373 51 0
-1373 -78 0
1373 -5 -29 -51 78 0
-1374 2 0
-1374 5 0
-1374 29 0
-1374 51 0
1374 -2 -5 -29 -51 0
-3 1364 1365 1366 1367 1368 1369 1370 1371 1372 1373 1374 0
-1375 5 0
-1375 2 0
-1375 -3 0
1375 -5 -2 3 0
-1376 5 0
-1376 52 0
-1376 -53 0
1376 -5 -52 53 0
-1377 2 0
-1377 52 0
-1377 -50 0
1377 -2 -52 50 0
-1378 5 0
-1378 2 0
-1378 52 0
-1378 -51 0
1378 -5 -2 -52 51 0
-4 1375 1376 1377 1378 0
-1379 6 0
-1379 4 0
1379 -6 -4 0
-1380 6 0
-1380 3 0
1380 -6 -3 0
-1381 6 0
-1381 30 0
-1381 -31 0
1381 -6 -30 31 0
-1382 6 0
-1382 53 0
-1382 -54 0
1382 -6 -53 54 0
-1383 4 0
-1383 3 0
-1383 -2 0
1383 -4 -3 2 0
-1384 4 0
-1384 30 0
1384 -4 -30 0
-1385 4 0
-1385 53 0
-1385 -52 0
1385 -4 -53 52 0
-1386 3 0
-1386 30 0
-1386 -29 0
1386 -3 -30 29 0
-1387 3 0
-1387 53 0
-1387 -51 0
1387 -3 -53 51 0
-1388 30 0
-1388 53 0
-1388 -78 0
1388 -30 -53 78 0
-1389 6 0
-1389 4 0
-1389 3 0
1389 -6 -4 -3 0
-1390 6 0
-1390 4 0
-1390 30 0
1390 -6 -4 -30 0
-1391 6 0
-1391 4 0
-1391 53 0
1391 -6 -4 -53 0
-1392 6 0
-1392 3 0
-1392 30 0
1392 -6 -3 -30 0
-1393 6 0
-1393 3 0
-1393 53 0
1393 -6 -3 -53 0
-1394 6 0
-1394 30 0
-1394 53 0
-1394 -79 0
1394 -6 -30 -53 79 0
-1395 4 0
-1395 3 0
-1395 30 0
-1395 -28 0
1395 -4 -3 -30 28 0
-1396 4 0
-1396 3 0
-1396 53 0
-1396 -50 0
1396 -4 -3 -53 50 0
-1397 4 0
-1397 30 0
-1397 53 0
1397 -4 -30 -53 0
-1398 3 0
-1398 30 0
-1398 53 0
-1398 -77 0
1398 -3 -30 -53 77 0
-1399 6 0
-1399 4 0
-1399 3 0
-1399 30 0
1399 -6 -4 -3 -30 0
-1400 6 0
-1400 4 0
-1400 3 0
-1400 53 0
1400 -6 -4 -3 -53 0
-1401 6 0
-1401 4 0
-1401 30 0
-1401 53 0
1401 -6 -4 -30 -53 0
-1402 6 0
-1402 3 0
-1402 30 0
-1402 53 0
1402 -6 -3 -30 -53 0
-1403 4 0
-1403 3 0
-1403 30 0
-1403 53 0
-1403 -76 0
1403 -4 -3 -30 -53 76 0
-1404 6 0
-1404 4 0
-1404 3 0
-1404 30 0
-1404 53 0
1404 -6 -4 -3 -30 -53 0
-5 1379 1380 1381 1382 1383 1384 1385 1386 1387 1388 1389 1390 1391 1392 1393 1394 1395 1396 1397 1398 1399 1400 1401 1402 1403 1404 0
-1405 5 0
-1405 7 0
1405 -5 -7 0
-1406 5 0
-1406 31 0
-1406 -30 0
1406 -5 -31 30 0
-1407 5 0
-1407 54 0
-1407 -53 0
1407 -5 -54 53 0
-1408 7 0
-1408 31 0
-1408 -32 0
1408 -7 -31 32 0
-1409 7 0
-1409 54 0
-1409 -55 0
1409 -7 -54 55 0
-1410 31 0
-1410 54 0
-1410 -79 0
1410 -31 -54 79 0
-1411 5 0
-1411 7 0
-1411 31 0
1411 -5 -7 -31 0
-1412 5 0
-1412 7 0
-1412 54 0
1412 -5 -7 -54 0
-1413 5 0
-1413 31 0
-1413 54 0
-1413 -78 0
1413 -5 -31 -54 78 0
-1414 7 0
-1414 31 0
-1414 54 0
-1414 -80 0
1414 -7 -31 -54 80 0
-1415 5 0
-1415 7 0
-1415 31 0
-1415 54 0
1415 -5 -7 -31 -54 0
-6 1405 1406 1407 1408 1409 1410 1411 1412 1413 1414 1415 0
-1416 6 0
-1416 1 0
1416 -6 -1 0
-1417 6 0
-1417 32 0
-1417 -31 0
1417 -6 -32 31 0
-1418 6 0
-1418 55 0
-1418 -54 0
1418 -6 -55 54 0
-1419 1 0
-1419 32 0
-1419 -27 0
1419 -1 -32 27 0
-1420 1 0
-1420 55 0
-1420 -49 0
1420 -1 -55 49 0
-1421 32 0
-1421 55 0
-1421 -80 0
1421 -32 -55 80 0
-1422 6 0
-1422 1 0
-1422 32 0
-1422 -26 0
1422 -6 -1 -32 26 0
-1423 6 0
-1423 1 0
-1423 55 0
1423 -6 -1 -55 0
-1424 6 0
-1424 32 0
-1424 55 0
-1424 -79 0
1424 -6 -32 -55 79 0
-1425 1 0
-1425 32 0
-1425 55 0
-1425 -75 0
1425 -1 -32 -55 75 0
-1426 6 0
-1426 1 0
-1426 32 0
-1426 55 0
-1426 -74 0
1426 -6 -1 -32 -55 74 0
-7 1416 1417 1418 1419 1420 1421 1422 1423 1424 1425 1426 0
-1427 9 0
-1427 11 0
1427 -9 -11 0
-1428 9 0
-1428 13 0
-1428 -14 0
1428 -9 -13 14 0
-1429 9 0
-1429 34 0
-1429 -35 0
1429 -9 -34 35 0
-1430 9 0
-1430 56 0
-1430 -57 0
1430 -9 -56 57 0
-1431 11 0
-1431 13 0
-1431 -16 0
1431 -11 -13 16 0
-1432 11 0
-1432 34 0
-1432 -37 0
1432 -11 -34 37 0
-1433 11 0
-1433 56 0
-1433 -59 0
1433 -11 -56 59 0
-1434 13 0
-1434 34 0
1434 -13 -34 0
-1435 13 0
-1435 56 0
-1435 -61 0
1435 -13 -56 61 0
-1436 34 0
-1436 56 0
-1436 -82 0
1436 -34 -56 82 0
-1437 9 0
-1437 11 0
-1437 13 0
1437 -9 -11 -13 0
-1438 9 0
-1438 11 0
-1438 34 0
1438 -9 -11 -34 0
-1439 9 0
-1439 11 0
-1439 56 0
1439 -9 -11 -56 0
-1440 9 0
-1440 13 0
-1440 34 0
1440 -9 -13 -34 0
-1441 9 0
-1441 13 0
-1441 56 0
-1441 -62 0
1441 -9 -13 -56 62 0
-1442 9 0
-1442 34 0
-1442 56 0
-1442 -83 0
1442 -9 -34 -56 83 0
-1443 11 0
-1443 13 0
-1443 34 0
1443 -11 -13 -34 0
-1444 11 0
-1444 13 0
-1444 56 0
-1444 -64 0
1444 -11 -13 -56 64 0
-1445 11 0
-1445 34 0
-1445 56 0
-1445 -85 0
1445 -11 -34 -56 85 0
-1446 13 0
-1446 34 0
-1446 56 0
1446 -13 -34 -56 0
-1447 9 0
-1447 11 0
-1447 13 0
-1447 34 0
1447 -9 -11 -13 -34 0
-1448 9 0
-1448 11 0
-1448 13 0
-1448 56 0
1448 -9 -11 -13 -56 0
-1449 9 0
-1449 11 0
-1449 34 0
-1449 56 0
1449 -9 -11 -34 -56 0
-1450 9 0
-1450 13 0
-1450 34 0
-1450 56 0
1450 -9 -13 -34 -56 0
-1451 11 0
-1451 13 0
-1451 34 0
-1451 56 0
1451 -11 -13 -34 -56 0
-1452 9 0
-1452 11 0
-1452 13 0
-1452 34 0
-1452 56 0
1452 -9 -11 -13 -34 -56 0
-8 1427 1428 1429 1430 1431 1432 1433 1434 1435 1436 1437 1438 1439 1440 1441 1442 1443 1444 1445 1446 1447 1448 1449 1450 1451 1452 0
-1453 8 0
-1453 10 0
1453 -8 -10 0
-1454 8 0
-1454 14 0
-1454 -13 0
1454 -8 -14 13 0
-1455 8 0
-1455 35 0
-1455 -34 0
1455 -8 -35 34 0
-1456 8 0
-1456 57 0
-1456 -56 0
1456 -8 -57 56 0
-1457 10 0
-1457 14 0
-1457 -15 0
1457 -10 -14 15 0
-1458 10 0
-1458 35 0
-1458 -36 0
1458 -10 -35 36 0
-1459 10 0
-1459 57 0
-1459 -58 0
1459 -10 -57 58 0
-1460 14 0
-1460 35 0
1460 -14 -35 0
-1461 14 0
-1461 57 0
-1461 -62 0
1461 -14 -57 62 0
-1462 35 0
-1462 57 0
-1462 -83 0
1462 -35 -57 83 0
-1463 8 0
-1463 10 0
-1463 14 0
1463 -8 -10 -14 0
-1464 8 0
-1464 10 0
-1464 35 0
1464 -8 -10 -35 0
-1465 8 0
-1465 10 0
-1465 57 0
1465 -8 -10 -57 0
-1466 8 0
-1466 14 0
-1466 35 0
1466 -8 -14 -35 0
-1467 8 0
-1467 14 0
-1467 57 0
-1467 -61 0
1467 -8 -14 -57 61 0
-1468 8 0
-1468 35 0
-1468 57 0
-1468 -82 0
1468 -8 -35 -57 82 0
-1469 10 0
-1469 14 0
-1469 35 0
1469 -10 -14 -35 0
-1470 10 0
-1470 14 0
-1470 57 0
-1470 -63 0
1470 -10 -14 -57 63 0
-1471 10 0
-1471 35 0
-1471 57 0
-1471 -84 0
1471 -10 -35 -57 84 0
-1472 14 0
-1472 35 0
-1472 57 0
1472 -14 -35 -57 0
-1473 8 0
-1473 10 0
-1473 14 0
-1473 35 0
1473 -8 -10 -14 -35 0
-1474 8 0
-1474 10 0
-1474 14 0
-1474 57 0
1474 -8 -10 -14 -57 0
-1475 8 0
-1475 10 0
-1475 35 0
-1475 57 0
1475 -8 -10 -35 -57 0
-1476 8 0
-1476 14 0
-1476 35 0
-1476 57 0
1476 -8 -14 -35 -57 0
-1477 10 0
-1477 14 0
-1477 35 0
-1477 57 0
1477 -10 -14 -35 -57 0
-1478 8 0
-1478 10 0
-1478 14 0
-1478 35 0
-1478 57 0
1478 -8 -10 -14 -35 -57 0
-9 1453 1454 1455 1456 1457 1458 1459 1460 1461 1462 1463 1464 1465 1466 1467 1468 1469 1470 1471 1472 1473 1474 1475 1476 1477 1478 0
-1479 9 0
-1479 15 0
-1479 -14 0
1479 -9 -15 14 0
-1480 9 0
-1480 36 0
-1480 -35 0
1480 -9 -36 35 0
-1481 9 0
-1481 58 0
-1481 -57 0
1481 -9 -58 57 0
-1482 15 0
-1482 36 0
1482 -15 -36 0
-1483 15 0
-1483 58 0
-1483 -63 0
1483 -15 -58 63 0
-1484 36 0
-1484 58 0
-1484 -84 0
1484 -36 -58 84 0
-1485 9 0
-1485 15 0
-1485 36 0
1485 -9 -15 -36 0
-1486 9 0
-1486 15 0
-1486 58 0
-1486 -62 0
1486 -9 -15 -58 62 0
-1487 9 0
-1487 36 0
-1487 58 0
-1487 -83 0
1487 -9 -36 -58 83 0
-1488 15 0
-1488 36 0
-1488 58 0
1488 -15 -36 -58 0
-1489 9 0
-1489 15 0
-1489 36 0
-1489 58 0
1489 -9 -15 -36 -58 0
-10 1479 1480 1481 1482 1483 1484 1485 1486 1487 1488 1489 0
-1490 8 0
-1490 12 0
1490 -8 -12 0
-1491 8 0
-1491 16 0
-1491 -13 0
1491 -8 -16 13 0
-1492 8 0
-1492 37 0
-1492 -34 0
1492 -8 -37 34 0
-1493 8 0
-1493 59 0
-1493 -56 0
1493 -8 -59 56 0
-1494 12 0
-1494 16 0
-1494 -17 0
1494 -12 -16 17 0
-1495 12 0
-1495 37 0
-1495 -38 0
1495 -12 -37 38 0
-1496 12 0
-1496 59 0
-1496 -60 0
1496 -12 -59 60 0
-1497 16 0
-1497 37 0
1497 -16 -37 0
-1498 16 0
-1498 59 0
-1498 -64 0
1498 -16 -59 64 0
-1499 37 0
-1499 59 0
-1499 -85 0
1499 -37 -59 85 0
-1500 8 0
-1500 12 0
-1500 16 0
1500 -8 -12 -16 0
-1501 8 0
-1501 12 0
-1501 37 0
1501 -8 -12 -37 0
-1502 8 0
-1502 12 0
-1502 59 0
1502 -8 -12 -59 0
-1503 8 0
-1503 16 0
-1503 37 0
1503 -8 -16 -37 0
-1504 8 0
-1504 16 0
-1504 59 0
-1504 -61 0
1504 -8 -16 -59 61 0
-1505 8 0
-1505 37 0
-1505 59 0
-1505 -82 0
1505 -8 -37 -59 82 0
-1506 12 0
-1506 16 0
-1506 37 0
1506 -12 -16 -37 0
-1507 12 0
-1507 16 0
-1507 59 0
-1507 -65 0
1507 -12 -16 -59 65 0
-1508 12 0
-1508 37 0
-1508 59 0
-1508 -86 0
1508 -12 -37 -59 86 0
-1509 16 0
-1509 37 0
-1509 59 0
1509 -16 -37 -59 0
-1510 8 0
-1510 12 0
-1510 16 0
-1510 37 0
1510 -8 -12 -16 -37 0
-1511 8 0
-1511 12 0
-1511 16 0
-1511 59 0
1511 -8 -12 -16 -59 0
-1512 8 0
-1512 12 0
-1512 37 0
-1512 59 0
1512 -8 -12 -37 -59 0
-1513 8 0
-1513 16 0
-1513 37 0
-1513 59 0
1513 -8 -16 -37 -59 0
-1514 12 0
-1514 16 0
-1514 37 0
-1514 59 0
1514 -12 -16 -37 -59 0
-1515 8 0
-1515 12 0
-1515 16 0
-1515 37 0
-1515 59 0
1515 -8 -12 -16 -37 -59 0
-11 1490 1491 1492 1493 1494 1495 1496 1497 1498 1499 1500 1501 1502 1503 1504 1505 1506 1507 1508 1509 1510 1511 1512 1513 1514 1515 0
-1516 11 0
-1516 17 0
-1516 -16 0
1516 -11 -17 16 0
-1517 11 0
-1517 28 0
1517 -11 -28 0
-1518 11 0
-1518 38 0
-1518 -37 0
1518 -11 -38 37 0
-1519 11 0
-1519 60 0
-1519 -59 0
1519 -11 -60 59 0
-1520 17 0
-1520 28 0
-1520 -29 0
1520 -17 -28 29 0
-1521 17 0
-1521 38 0
1521 -17 -38 0
-1522 17 0
-1522 60 0
-1522 -65 0
1522 -17 -60 65 0
-1523 28 0
-1523 38 0
-1523 -39 0
1523 -28 -38 39 0
-1524 28 0
-1524 60 0
-1524 -76 0
1524 -28 -60 76 0
-1525 38 0
-1525 60 0
-1525 -86 0
1525 -38 -60 86 0
-1526 11 0
-1526 17 0
-1526 28 0
1526 -11 -17 -28 0
-1527 11 0
-1527 17 0
-1527 38 0
1527 -11 -17 -38 0
-1528 11 0
-1528 17 0
-1528 60 0
-1528 -64 0
1528 -11 -17 -60 64 0
-1529 11 0
-1529 28 0
-1529 38 0
1529 -11 -28 -38 0
-1530 11 0
-1530 28 0
-1530 60 0
1530 -11 -28 -60 0
-1531 11 0
-1531 38 0
-1531 60 0
-1531 -85 0
1531 -11 -38 -60 85 0
-1532 17 0
-1532 28 0
-1532 38 0
1532 -17 -28 -38 0
-1533 17 0
-1533 28 0
-1533 60 0
-1533 -77 0
1533 -17 -28 -60 77 0
-1534 17 0
-1534 38 0
-1534 60 0
1534 -17 -38 -60 0
-1535 28 0
-1535 38 0
-1535 60 0
-1535 -87 0
1535 -28 -38 -60 87 0
-1536 11 0
-1536 17 0
-1536 28 0
-1536 38 0
1536 -11 -17 -28 -38 0
-1537 11 0
-1537 17 0
-1537 28 0
-1537 60 0
1537 -11 -17 -28 -60 0
-1538 11 0
-1538 17 0
-1538 38 0
-1538 60 0
1538 -11 -17 -38 -60 0
-1539 11 0
-1539 28 0
-1539 38 0
-1539 60 0
1539 -11 -28 -38 -60 0
-1540 17 0
-1540 28 0
-1540 38 0
-1540 60 0
1540 -17 -28 -38 -60 0
-1541 11 0
-1541 17 0
-1541 28 0
-1541 38 0
-1541 60 0
1541 -11 -17 -28 -38 -60 0
-12 1516 1517 1518 1519 1520 1521 1522 1523 1524 1525 1526 1527 1528 1529 1530 1531 1532 1533 1534 1535 1536 1537 1538 1539 1540 1541 0
-1542 14 0
-1542 16 0
1542 -14 -16 0
-1543 14 0
-1543 8 0
-1543 -9 0
1543 -14 -8 9 0
-1544 14 0
-1544 18 0
-1544 -19 0
1544 -14 -18 19 0
-1545 14 0
-1545 61 0
-1545 -62 0
1545 -14 -61 62 0
-1546 16 0
-1546 8 0
-1546 -11 0
1546 -16 -8 11 0
-1547 16 0
-1547 18 0
-1547 -21 0
1547 -16 -18 21 0
-1548 16 0
-1548 61 0
-1548 -64 0
1548 -16 -61 64 0
-1549 8 0
-1549 18 0
1549 -8 -18 0
-1550 8 0
-1550 61 0
-1550 -56 0
1550 -8 -61 56 0
-1551 18 0
-1551 61 0
-1551 -66 0
1551 -18 -61 66 0
-1552 14 0
-1552 16 0
-1552 8 0
1552 -14 -16 -8 0
-1553 14 0
-1553 16 0
-1553 18 0
-1553 -22 0
1553 -14 -16 -18 22 0
-1554 14 0
-1554 16 0
-1554 61 0
1554 -14 -16 -61 0
-1555 14 0
-1555 8 0
-1555 18 0
1555 -14 -8 -18 0
-1556 14 0
-1556 8 0
-1556 61 0
-1556 -57 0
1556 -14 -8 -61 57 0
-1557 14 0
-1557 18 0
-1557 61 0
-1557 -67 0
1557 -14 -18 -61 67 0
-1558 16 0
-1558 8 0
-1558 18 0
1558 -16 -8 -18 0
-1559 16 0
-1559 8 0
-1559 61 0
-1559 -59 0
1559 -16 -8 -61 59 0
-1560 16 0
-1560 18 0
-1560 61 0
-1560 -69 0
1560 -16 -18 -61 69 0
-1561 8 0
-1561 18 0
-1561 61 0
1561 -8 -18 -61 0
-1562 14 0
-1562 16 0
-1562 8 0
-1562 18 0
1562 -14 -16 -8 -18 0
-1563 14 0
-1563 16 0
-1563 8 0
-1563 61 0
1563 -14 -16 -8 -61 0
-1564 14 0
-1564 16 0
-1564 18 0
-1564 61 0
-1564 -70 0
1564 -14 -16 -18 -61 70 0
-1565 14 0
-1565 8 0
-1565 18 0
-1565 61 0
1565 -14 -8 -18 -61 0
-1566 16 0
-1566 8 0
-1566 18 0
-1566 61 0
1566 -16 -8 -18 -61 0
-1567 14 0
-1567 16 0
-1567 8 0
-1567 18 0
-1567 61 0
1567 -14 -16 -8 -18 -61 0
-13 1542 1543 1544 1545 1546 1547 1548 1549 1550 1551 1552 1553 1554 1555 1556 1557 1558 1559 1560 1561 1562 1563 1564 1565 1566 1567 0
-1568 13 0
-1568 15 0
1568 -13 -15 0
-1569 13 0
-1569 9 0
-1569 -8 0
1569 -13 -9 8 0
-1570 13 0
-1570 19 0
-1570 -18 0
1570 -13 -19 18 0
-1571 13 0
-1571 62 0
-1571 -61 0
1571 -13 -62 61 0
-1572 15 0
-1572 9 0
-1572 -10 0
1572 -15 -9 10 0
-1573 15 0
-1573 19 0
-1573 -20 0
1573 -15 -19 20 0
-1574 15 0
-1574 62 0
-1574 -63 0
1574 -15 -62 63 0
-1575 9 0
-1575 19 0
1575 -9 -19 0
-1576 9 0
-1576 62 0
-1576 -57 0
1576 -9 -62 57 0
-1577 19 0
-1577 62 0
-1577 -67 0
1577 -19 -62 67 0
-1578 13 0
-1578 15 0
-1578 9 0
1578 -13 -15 -9 0
-1579 13 0
-1579 15 0
-1579 19 0
1579 -13 -15 -19 0
-1580 13 0
-1580 15 0
-1580 62 0
1580 -13 -15 -62 0
-1581 13 0
-1581 9 0
-1581 19 0
1581 -13 -9 -19 0
-1582 13 0
-1582 9 0
-1582 62 0
-1582 -56 0
1582 -13 -9 -62 56 0
-1583 13 0
-1583 19 0
-1583 62 0
-1583 -66 0
1583 -13 -19 -62 66 0
-1584 15 0
-1584 9 0
-1584 19 0
1584 -15 -9 -19 0
-1585 15 0
-1585 9 0
-1585 62 0
-1585 -58 0
1585 -15 -9 -62 58 0
-1586 15 0
-1586 19 0
-1586 62 0
-1586 -68 0
1586 -15 -19 -62 68 0
-1587 9 0
-1587 19 0
-1587 62 0
1587 -9 -19 -62 0
-1588 13 0
-1588 15 0
-1588 9 0
-1588 19 0
1588 -13 -15 -9 -19 0
-1589 13 0
-1589 15 0
-1589 9 0
-1589 62 0
1589 -13 -15 -9 -62 0
-1590 13 0
-1590 15 0
-1590 19 0
-1590 62 0
1590 -13 -15 -19 -62 0
-1591 13 0
-1591 9 0
-1591 19 0
-1591 62 0
1591 -13 -9 -19 -62 0
-1592 15 0
-1592 9 0
-1592 19 0
-1592 62 0
1592 -15 -9 -19 -62 0
-1593 13 0
-1593 15 0
-1593 9 0
-1593 19 0
-1593 62 0
1593 -13 -15 -9 -19 -62 0
-14 1568 1569 1570 1571 1572 1573 1574 1575 1576 1577 1578 1579 1580 1581 1582 1583 1584 1585 1586 1587 1588 1589 1590 1591 1592 1593 0
-1594 14 0
-1594 10 0
-1594 -9 0
1594 -14 -10 9 0
-1595 14 0
-1595 20 0
-1595 -19 0
1595 -14 -20 19 0
-1596 14 0
-1596 63 0
-1596 -62 0
1596 -14 -63 62 0
-1597 10 0
-1597 20 0
1597 -10 -20 0
-1598 10 0
-1598 63 0
-1598 -58 0
1598 -10 -63 58 0
-1599 20 0
-1599 63 0
-1599 -68 0
1599 -20 -63 68 0
-1600 14 0
-1600 10 0
-1600 20 0
1600 -14 -10 -20 0
-1601 14 0
-1601 10 0
-1601 63 0
-1601 -57 0
1601 -14 -10 -63 57 0
-1602 14 0
-1602 20 0
-1602 63 0
-1602 -67 0
1602 -14 -20 -63 67 0
-1603 10 0
-1603 20 0
-1603 63 0
1603 -10 -20 -63 0
-1604 14 0
-1604 10 0
-1604 20 0
-1604 63 0
1604 -14 -10 -20 -63 0
-15 1594 1595 1596 1597 1598 1599 1600 1601 1602 1603 1604 0
-1605 13 0
-1605 17 0
1605 -13 -17 0
-1606 13 0
-1606 11 0
-1606 -8 0
1606 -13 -11 8 0
-1607 13 0
-1607 21 0
-1607 -18 0
1607 -13 -21 18 0
-1608 13 0
-1608 64 0
-1608 -61 0
1608 -13 -64 61 0
-1609 17 0
-1609 11 0
-1609 -12 0
1609 -17 -11 12 0
-1610 17 0
-1610 21 0
-1610 -25 0
1610 -17 -21 25 0
-1611 17 0
-1611 64 0
-1611 -65 0
1611 -17 -64 65 0
-1612 11 0
-1612 21 0
1612 -11 -21 0
-1613 11 0
-1613 64 0
-1613 -59 0
1613 -11 -64 59 0
-1614 21 0
-1614 64 0
-1614 -69 0
1614 -21 -64 69 0
-1615 13 0
-1615 17 0
-1615 11 0
1615 -13 -17 -11 0
-1616 13 0
-1616 17 0
-1616 21 0
1616 -13 -17 -21 0
-1617 13 0
-1617 17 0
-1617 64 0
1617 -13 -17 -64 0
-1618 13 0
-1618 11 0
-1618 21 0
1618 -13 -11 -21 0
-1619 13 0
-1619 11 0
-1619 64 0
-1619 -56 0
1619 -13 -11 -64 56 0
-1620 13 0
-1620 21 0
-1620 64 0
-1620 -66 0
1620 -13 -21 -64 66 0
-1621 17 0
-1621 11 0
-1621 21 0
1621 -17 -11 -21 0
-1622 17 0
-1622 11 0
-1622 64 0
-1622 -60 0
1622 -17 -11 -64 60 0
-1623 17 0
-1623 21 0
-1623 64 0
-1623 -73 0
1623 -17 -21 -64 73 0
-1624 11 0
-1624 21 0
-1624 64 0
1624 -11 -21 -64 0
-1625 13 0
-1625 17 0
-1625 11 0
-1625 21 0
1625 -13 -17 -11 -21 0
-1626 13 0
-1626 17 0
-1626 11 0
-1626 64 0
1626 -13 -17 -11 -64 0
-1627 13 0
-1627 17 0
-1627 21 0
-1627 64 0
1627 -13 -17 -21 -64 0
-1628 13 0
-1628 11 0
-1628 21 0
-1628 64 0
1628 -13 -11 -21 -64 0
-1629 17 0
-1629 11 0
-1629 21 0
-1629 64 0
1629 -17 -11 -21 -64 0
-1630 13 0
-1630 17 0
-1630 11 0
-1630 21 0
-1630 64 0
1630 -13 -17 -11 -21 -64 0
-16 1605 1606 1607 1608 1609 1610 1611 1612 1613 1614 1615 1616 1617 1618 1619 1620 1621 1622 1623 1624 1625 1626 1627 1628 1629 1630 0
-1631 16 0
-1631 12 0
-1631 -11 0
1631 -16 -12 11 0
-1632 16 0
-1632 25 0
-1632 -21 0
1632 -16 -25 21 0
-1633 16 0
-1633 29 0
1633 -16 -29 0
-1634 16 0
-1634 65 0
-1634 -64 0
1634 -16 -65 64 0
-1635 12 0
-1635 25 0
1635 -12 -25 0
-1636 12 0
-1636 29 0
-1636 -28 0
1636 -12 -29 28 0
-1637 12 0
-1637 65 0
-1637 -60 0
1637 -12 -65 60 0
-1638 25 0
-1638 29 0
-1638 -30 0
1638 -25 -29 30 0
-1639 25 0
-1639 65 0
-1639 -73 0
1639 -25 -65 73 0
-1640 29 0
-1640 65 0
-1640 -77 0
1640 -29 -65 77 0
-1641 16 0
-1641 12 0
-1641 25 0
1641 -16 -12 -25 0
-1642 16 0
-1642 12 0
-1642 29 0
1642 -16 -12 -29 0
-1643 16 0
-1643 12 0
-1643 65 0
-1643 -59 0
1643 -16 -12 -65 59 0
-1644 16 0
-1644 25 0
-1644 29 0
1644 -16 -25 -29 0
-1645 16 0
-1645 25 0
-1645 65 0
-1645 -69 0
1645 -16 -25 -65 69 0
-1646 16 0
-1646 29 0
-1646 65 0
1646 -16 -29 -65 0
-1647 12 0
-1647 25 0
-1647 29 0
1647 -12 -25 -29 0
-1648 12 0
-1648 25 0
-1648 65 0
1648 -12 -25 -65 0
-1649 12 0
-1649 29 0
-1649 65 0
-1649 -76 0
1649 -12 -29 -65 76 0
-1650 25 0
-1650 29 0
-1650 65 0
-1650 -78 0
1650 -25 -29 -65 78 0
-1651 16 0
-1651 12 0
-1651 25 0
-1651 29 0
1651 -16 -12 -25 -29 0
-1652 16 0
-1652 12 0
-1652 25 0
-1652 65 0
1652 -16 -12 -25 -65 0
-1653 16 0
-1653 12 0
-1653 29 0
-1653 65 0
1653 -16 -12 -29 -65 0
-1654 16 0
-1654 25 0
-1654 29 0
-1654 65 0
1654 -16 -25 -29 -65 0
-1655 12 0
-1655 25 0
-1655 29 0
-1655 65 0
1655 -12 -25 -29 -65 0
-1656 16 0
-1656 12 0
-1656 25 0
-1656 29 0
-1656 65 0
1656 -16 -12 -25 -29 -65 0
-17 1631 1632 1633 1634 1635 1636 1637 1638 1639 1640 1641 1642 1643 1644 1645 1646 1647 1648 1649 1650 1651 1652 1653 1654 1655 1656 0
-1657 19 0
-1657 21 0
-1657 -22 0
1657 -19 -21 22 0
-1658 19 0
-1658 13 0
-1658 -14 0
1658 -19 -13 14 0
-1659 19 0
-1659 66 0
-1659 -67 0
1659 -19 -66 67 0
-1660 21 0
-1660 13 0
-1660 -16 0
1660 -21 -13 16 0
-1661 21 0
-1661 66 0
-1661 -69 0
1661 -21 -66 69 0
-1662 13 0
-1662 66 0
-1662 -61 0
1662 -13 -66 61 0
-1663 19 0
-1663 21 0
-1663 13 0
1663 -19 -21 -13 0
-1664 19 0
-1664 21 0
-1664 66 0
-1664 -70 0
1664 -19 -21 -66 70 0
-1665 19 0
-1665 13 0
-1665 66 0
-1665 -62 0
1665 -19 -13 -66 62 0
-1666 21 0
-1666 13 0
-1666 66 0
-1666 -64 0
1666 -21 -13 -66 64 0
-1667 19 0
-1667 21 0
-1667 13 0
-1667 66 0
1667 -19 -21 -13 -66 0
-18 1657 1658 1659 1660 1661 1662 1663 1664 1665 1666 1667 0
-1668 18 0
-1668 20 0
1668 -18 -20 0
-1669 18 0
-1669 22 0
-1669 -21 0
1669 -18 -22 21 0
-1670 18 0
-1670 14 0
-1670 -13 0
1670 -18 -14 13 0
-1671 18 0
-1671 67 0
-1671 -66 0
1671 -18 -67 66 0
-1672 20 0
-1672 22 0
-1672 -23 0
1672 -20 -22 23 0
-1673 20 0
-1673 14 0
-1673 -15 0
1673 -20 -14 15 0
-1674 20 0
-1674 67 0
-1674 -68 0
1674 -20 -67 68 0
-1675 22 0
-1675 14 0
1675 -22 -14 0
-1676 22 0
-1676 67 0
-1676 -70 0
1676 -22 -67 70 0
-1677 14 0
-1677 67 0
-1677 -62 0
1677 -14 -67 62 0
-1678 18 0
-1678 20 0
-1678 22 0
1678 -18 -20 -22 0
-1679 18 0
-1679 20 0
-1679 14 0
1679 -18 -20 -14 0
-1680 18 0
-1680 20 0
-1680 67 0
1680 -18 -20 -67 0
-1681 18 0
-1681 22 0
-1681 14 0
-1681 -16 0
1681 -18 -22 -14 16 0
-1682 18 0
-1682 22 0
-1682 67 0
-1682 -69 0
1682 -18 -22 -67 69 0
-1683 18 0
-1683 14 0
-1683 67 0
-1683 -61 0
1683 -18 -14 -67 61 0
-1684 20 0
-1684 22 0
-1684 14 0
1684 -20 -22 -14 0
-1685 20 0
-1685 22 0
-1685 67 0
-1685 -71 0
1685 -20 -22 -67 71 0
-1686 20 0
-1686 14 0
-1686 67 0
-1686 -63 0
1686 -20 -14 -67 63 0
-1687 22 0
-1687 14 0
-1687 67 0
1687 -22 -14 -67 0
-1688 18 0
-1688 20 0
-1688 22 0
-1688 14 0
1688 -18 -20 -22 -14 0
-1689 18 0
-1689 20 0
-1689 22 0
-1689 67 0
1689 -18 -20 -22 -67 0
-1690 18 0
-1690 20 0
-1690 14 0
-1690 67 0
1690 -18 -20 -14 -67 0
-1691 18 0
-1691 22 0
-1691 14 0
-1691 67 0
-1691 -64 0
1691 -18 -22 -14 -67 64 0
-1692 20 0
-1692 22 0
-1692 14 0
-1692 67 0
1692 -20 -22 -14 -67 0
-1693 18 0
-1693 20 0
-1693 22 0
-1693 14 0
-1693 67 0
1693 -18 -20 -22 -14 -67 0
-19 1668 1669 1670 1671 1672 1673 1674 1675 1676 1677 1678 1679 1680 1681 1682 1683 1684 1685 1686 1687 1688 1689 1690 1691 1692 1693 0
-1694 19 0
-1694 23 0
-1694 -22 0
1694 -19 -23 22 0
-1695 19 0
-1695 24 0
1695 -19 -24 0
-1696 19 0
-1696 15 0
-1696 -14 0
1696 -19 -15 14 0
-1697 19 0
-1697 68 0
-1697 -67 0
1697 -19 -68 67 0
-1698 23 0
-1698 24 0
-1698 -27 0
1698 -23 -24 27 0
-1699 23 0
-1699 15 0
1699 -23 -15 0
-1700 23 0
-1700 68 0
-1700 -71 0
1700 -23 -68 71 0
-1701 24 0
-1701 15 0
1701 -24 -15 0
-1702 24 0
-1702 68 0
-1702 -72 0
1702 -24 -68 72 0
-1703 15 0
-1703 68 0
-1703 -63 0
1703 -15 -68 63 0
-1704 19 0
-1704 23 0
-1704 24 0
-1704 -26 0
1704 -19 -23 -24 26 0
-1705 19 0
-1705 23 0
-1705 15 0
1705 -19 -23 -15 0
-1706 19 0
-1706 23 0
-1706 68 0
-1706 -70 0
1706 -19 -23 -68 70 0
-1707 19 0
-1707 24 0
-1707 15 0
1707 -19 -24 -15 0
-1708 19 0
-1708 24 0
-1708 68 0
1708 -19 -24 -68 0
-1709 19 0
-1709 15 0
-1709 68 0
-1709 -62 0
1709 -19 -15 -68 62 0
-1710 23 0
-1710 24 0
-1710 15 0
1710 -23 -24 -15 0
-1711 23 0
-1711 24 0
-1711 68 0
-1711 -75 0
1711 -23 -24 -68 75 0
-1712 23 0
-1712 15 0
-1712 68 0
1712 -23 -15 -68 0
-1713 24 0
-1713 15 0
-1713 68 0
1713 -24 -15 -68 0
-1714 19 0
-1714 23 0
-1714 24 0
-1714 15 0
1714 -19 -23 -24 -15 0
-1715 19 0
-1715 23 0
-1715 24 0
-1715 68 0
-1715 -74 0
1715 -19 -23 -24 -68 74 0
-1716 19 0
-1716 23 0
-1716 15 0
-1716 68 0
1716 -19 -23 -15 -68 0
-1717 19 0
-1717 24 0
-1717 15 0
-1717 68 0
1717 -19 -24 -15 -68 0
-1718 23 0
-1718 24 0
-1718 15 0
-1718 68 0
1718 -23 -24 -15 -68 0
-1719 19 0
-1719 23 0
-1719 24 0
-1719 15 0
-1719 68 0
1719 -19 -23 -24 -15 -68 0
-20 1694 1695 1696 1697 1698 1699 1700 1701 1702 1703 1704 1705 1706 1707 1708 1709 1710 1711 1712 1713 1714 1715 1716 1717 1718 1719 0
-1720 22 0
-1720 18 0
-1720 -19 0
1720 -22 -18 19 0
-1721 22 0
-1721 25 0
-1721 -26 0
1721 -22 -25 26 0
-1722 22 0
-1722 16 0
1722 -22 -16 0
-1723 22 0
-1723 69 0
-1723 -70 0
1723 -22 -69 70 0
-1724 18 0
-1724 25 0
1724 -18 -25 0
-1725 18 0
-1725 16 0
-1725 -13 0
1725 -18 -16 13 0
-1726 18 0
-1726 69 0
-1726 -66 0
1726 -18 -69 66 0
-1727 25 0
-1727 16 0
-1727 -17 0
1727 -25 -16 17 0
-1728 25 0
-1728 69 0
-1728 -73 0
1728 -25 -69 73 0
-1729 16 0
-1729 69 0
-1729 -64 0
1729 -16 -69 64 0
-1730 22 0
-1730 18 0
-1730 25 0
1730 -22 -18 -25 0
-1731 22 0
-1731 18 0
-1731 16 0
-1731 -14 0
1731 -22 -18 -16 14 0
-1732 22 0
-1732 18 0
-1732 69 0
-1732 -67 0
1732 -22 -18 -69 67 0
-1733 22 0
-1733 25 0
-1733 16 0
1733 -22 -25 -16 0
-1734 22 0
-1734 25 0
-1734 69 0
-1734 -74 0
1734 -22 -25 -69 74 0
-1735 22 0
-1735 16 0
-1735 69 0
1735 -22 -16 -69 0
-1736 18 0
-1736 25 0
-1736 16 0
1736 -18 -25 -16 0
-1737 18 0
-1737 25 0
-1737 69 0
1737 -18 -25 -69 0
-1738 18 0
-1738 16 0
-1738 69 0
-1738 -61 0
1738 -18 -16 -69 61 0
-1739 25 0
-1739 16 0
-1739 69 0
-1739 -65 0
1739 -25 -16 -69 65 0
-1740 22 0
-1740 18 0
-1740 25 0
-1740 16 0
1740 -22 -18 -25 -16 0
-1741 22 0
-1741 18 0
-1741 25 0
-1741 69 0
1741 -22 -18 -25 -69 0
-1742 22 0
-1742 18 0
-1742 16 0
-1742 69 0
-1742 -62 0
1742 -22 -18 -16 -69 62 0
-1743 22 0
-1743 25 0
-1743 16 0
-1743 69 0
1743 -22 -25 -16 -69 0
-1744 18 0
-1744 25 0
-1744 16 0
-1744 69 0
1744 -18 -25 -16 -69 0
-1745 22 0
-1745 18 0
-1745 25 0
-1745 16 0
-1745 69 0
1745 -22 -18 -25 -16 -69 0
-21 1720 1721 1722 1723 1724 1725 1726 1727 1728 1729 1730 1731 1732 1733 1734 1735 1736 1737 1738 1739 1740 1741 1742 1743 1744 1745 0
-1746 21 0
-1746 23 0
1746 -21 -23 0
-1747 21 0
-1747 19 0
-1747 -18 0
1747 -21 -19 18 0
-1748 21 0
-1748 26 0
-1748 -25 0
1748 -21 -26 25 0
-1749 21 0
-1749 70 0
-1749 -69 0
1749 -21 -70 69 0
-1750 23 0
-1750 19 0
-1750 -20 0
1750 -23 -19 20 0
-1751 23 0
-1751 26 0
-1751 -27 0
1751 -23 -26 27 0
-1752 23 0
-1752 70 0
-1752 -71 0
1752 -23 -70 71 0
-1753 19 0
-1753 26 0
1753 -19 -26 0
-1754 19 0
-1754 70 0
-1754 -67 0
1754 -19 -70 67 0
-1755 26 0
-1755 70 0
-1755 -74 0
1755 -26 -70 74 0
-1756 21 0
-1756 23 0
-1756 19 0
1756 -21 -23 -19 0
-1757 21 0
-1757 23 0
-1757 26 0
1757 -21 -23 -26 0
-1758 21 0
-1758 23 0
-1758 70 0
1758 -21 -23 -70 0
-1759 21 0
-1759 19 0
-1759 26 0
1759 -21 -19 -26 0
-1760 21 0
-1760 19 0
-1760 70 0
-1760 -66 0
1760 -21 -19 -70 66 0
-1761 21 0
-1761 26 0
-1761 70 0
-1761 -73 0
1761 -21 -26 -70 73 0
-1762 23 0
-1762 19 0
-1762 26 0
-1762 -24 0
1762 -23 -19 -26 24 0
-1763 23 0
-1763 19 0
-1763 70 0
-1763 -68 0
1763 -23 -19 -70 68 0
-1764 23 0
-1764 26 0
-1764 70 0
-1764 -75 0
1764 -23 -26 -70 75 0
-1765 19 0
-1765 26 0
-1765 70 0
1765 -19 -26 -70 0
-1766 21 0
-1766 23 0
-1766 19 0
-1766 26 0
1766 -21 -23 -19 -26 0
-1767 21 0
-1767 23 0
-1767 19 0
-1767 70 0
1767 -21 -23 -19 -70 0
-1768 21 0
-1768 23 0
-1768 26 0
-1768 70 0
1768 -21 -23 -26 -70 0
-1769 21 0
-1769 19 0
-1769 26 0
-1769 70 0
1769 -21 -19 -26 -70 0
-1770 23 0
-1770 19 0
-1770 26 0
-1770 70 0
-1770 -72 0
1770 -23 -19 -26 -70 72 0
-1771 21 0
-1771 23 0
-1771 19 0
-1771 26 0
-1771 70 0
1771 -21 -23 -19 -26 -70 0
-22 1746 1747 1748 1749 1750 1751 1752 1753 1754 1755 1756 1757 1758 1759 1760 1761 1762 1763 1764 1765 1766 1767 1768 1769 1770 1771 0
-1772 22 0
-1772 20 0
-1772 -19 0
1772 -22 -20 19 0
-1773 22 0
-1773 27 0
-1773 -26 0
1773 -22 -27 26 0
-1774 22 0
-1774 71 0
-1774 -70 0
1774 -22 -71 70 0
-1775 20 0
-1775 27 0
-1775 -24 0
1775 -20 -27 24 0
-1776 20 0
-1776 71 0
-1776 -68 0
1776 -20 -71 68 0
-1777 27 0
-1777 71 0
-1777 -75 0
1777 -27 -71 75 0
-1778 22 0
-1778 20 0
-1778 27 0
1778 -22 -20 -27 0
-1779 22 0
-1779 20 0
-1779 71 0
-1779 -67 0
1779 -22 -20 -71 67 0
-1780 22 0
-1780 27 0
-1780 71 0
-1780 -74 0
1780 -22 -27 -71 74 0
-1781 20 0
-1781 27 0
-1781 71 0
-1781 -72 0
1781 -20 -27 -71 72 0
-1782 22 0
-1782 20 0
-1782 27 0
-1782 71 0
1782 -22 -20 -27 -71 0
-23 1772 1773 1774 1775 1776 1777 1778 1779 1780 1781 1782 0
-1783 27 0
-1783 20 0
-1783 -23 0
1783 -27 -20 23 0
-1784 27 0
-1784 72 0
-1784 -75 0
1784 -27 -72 75 0
-1785 20 0
-1785 72 0
-1785 -68 0
1785 -20 -72 68 0
-1786 27 0
-1786 20 0
-1786 72 0
-1786 -71 0
1786 -27 -20 -72 71 0
-24 1783 1784 1785 1786 0
-1787 26 0
-1787 21 0
-1787 -22 0
1787 -26 -21 22 0
-1788 26 0
-1788 17 0
1788 -26 -17 0
-1789 26 0
-1789 30 0
-1789 -31 0
1789 -26 -30 31 0
-1790 26 0
-1790 73 0
-1790 -74 0
1790 -26 -73 74 0
-1791 21 0
-1791 17 0
-1791 -16 0
1791 -21 -17 16 0
-1792 21 0
-1792 30 0
1792 -21 -30 0
-1793 21 0
-1793 73 0
-1793 -69 0
1793 -21 -73 69 0
-1794 17 0
-1794 30 0
-1794 -29 0
1794 -17 -30 29 0
-1795 17 0
-1795 73 0
-1795 -65 0
1795 -17 -73 65 0
-1796 30 0
-1796 73 0
-1796 -78 0
1796 -30 -73 78 0
-1797 26 0
-1797 21 0
-1797 17 0
1797 -26 -21 -17 0
-1798 26 0
-1798 21 0
-1798 30 0
1798 -26 -21 -30 0
-1799 26 0
-1799 21 0
-1799 73 0
-1799 -70 0
1799 -26 -21 -73 70 0
-1800 26 0
-1800 17 0
-1800 30 0
1800 -26 -17 -30 0
-1801 26 0
-1801 17 0
-1801 73 0
1801 -26 -17 -73 0
-1802 26 0
-1802 30 0
-1802 73 0
-1802 -79 0
1802 -26 -30 -73 79 0
-1803 21 0
-1803 17 0
-1803 30 0
1803 -21 -17 -30 0
-1804 21 0
-1804 17 0
-1804 73 0
-1804 -64 0
1804 -21 -17 -73 64 0
-1805 21 0
-1805 30 0
-1805 73 0
1805 -21 -30 -73 0
-1806 17 0
-1806 30 0
-1806 73 0
-1806 -77 0
1806 -17 -30 -73 77 0
-1807 26 0
-1807 21 0
-1807 17 0
-1807 30 0
1807 -26 -21 -17 -30 0
-1808 26 0
-1808 21 0
-1808 17 0
-1808 73 0
1808 -26 -21 -17 -73 0
-1809 26 0
-1809 21 0
-1809 30 0
-1809 73 0
1809 -26 -21 -30 -73 0
-1810 26 0
-1810 17 0
-1810 30 0
-1810 73 0
1810 -26 -17 -30 -73 0
-1811 21 0
-1811 17 0
-1811 30 0
-1811 73 0
1811 -21 -17 -30 -73 0
-1812 26 0
-1812 21 0
-1812 17 0
-1812 30 0
-1812 73 0
1812 -26 -21 -17 -30 -73 0
-25 1787 1788 1789 1790 1791 1792 1793 1794 1795 1796 1797 1798 1799 1800 1801 1802 1803 1804 1805 1806 1807 1808 1809 1810 1811 1812 0
-1813 25 0
-1813 27 0
1813 -25 -27 0
-1814 25 0
-1814 22 0
-1814 -21 0
1814 -25 -22 21 0
-1815 25 0
-1815 31 0
-1815 -30 0
1815 -25 -31 30 0
-1816 25 0
-1816 74 0
-1816 -73 0
1816 -25 -74 73 0
-1817 27 0
-1817 22 0
-1817 -23 0
1817 -27 -22 23 0
-1818 27 0
-1818 31 0
-1818 -32 0
1818 -27 -31 32 0
-1819 27 0
-1819 74 0
-1819 -75 0
1819 -27 -74 75 0
-1820 22 0
-1820 31 0
1820 -22 -31 0
-1821 22 0
-1821 74 0
-1821 -70 0
1821 -22 -74 70 0
-1822 31 0
-1822 74 0
-1822 -79 0
1822 -31 -74 79 0
-1823 25 0
-1823 27 0
-1823 22 0
1823 -25 -27 -22 0
-1824 25 0
-1824 27 0
-1824 31 0
1824 -25 -27 -31 0
-1825 25 0
-1825 27 0
-1825 74 0
1825 -25 -27 -74 0
-1826 25 0
-1826 22 0
-1826 31 0
1826 -25 -22 -31 0
-1827 25 0
-1827 22 0
-1827 74 0
-1827 -69 0
1827 -25 -22 -74 69 0
-1828 25 0
-1828 31 0
-1828 74 0
-1828 -78 0
1828 -25 -31 -74 78 0
-1829 27 0
-1829 22 0
-1829 31 0
1829 -27 -22 -31 0
-1830 27 0
-1830 22 0
-1830 74 0
-1830 -71 0
1830 -27 -22 -74 71 0
-1831 27 0
-1831 31 0
-1831 74 0
-1831 -80 0
1831 -27 -31 -74 80 0
-1832 22 0
-1832 31 0
-1832 74 0
1832 -22 -31 -74 0
-1833 25 0
-1833 27 0
-1833 22 0
-1833 31 0
1833 -25 -27 -22 -31 0
-1834 25 0
-1834 27 0
-1834 22 0
-1834 74 0
1834 -25 -27 -22 -74 0
-1835 25 0
-1835 27 0
-1835 31 0
-1835 74 0
1835 -25 -27 -31 -74 0
-1836 25 0
-1836 22 0
-1836 31 0
-1836 74 0
1836 -25 -22 -31 -74 0
-1837 27 0
-1837 22 0
-1837 31 0
-1837 74 0
1837 -27 -22 -31 -74 0
-1838 25 0
-1838 27 0
-1838 22 0
-1838 31 0
-1838 74 0
1838 -25 -27 -22 -31 -74 0
-26 1813 1814 1815 1816 1817 1818 1819 1820 1821 1822 1823 1824 1825 1826 1827 1828 1829 1830 1831 1832 1833 1834 1835 1836 1837 1838 0
-1839 26 0
-1839 24 0
1839 -26 -24 0
-1840 26 0
-1840 23 0
-1840 -22 0
1840 -26 -23 22 0
-1841 26 0
-1841 32 0
-1841 -31 0
1841 -26 -32 31 0
-1842 26 0
-1842 1 0
1842 -26 -1 0
-1843 26 0
-1843 75 0
-1843 -74 0
1843 -26 -75 74 0
-1844 24 0
-1844 23 0
-1844 -20 0
1844 -24 -23 20 0
-1845 24 0
-1845 32 0
1845 -24 -32 0
-1846 24 0
-1846 1 0
1846 -24 -1 0
-1847 24 0
-1847 75 0
-1847 -72 0
1847 -24 -75 72 0
-1848 23 0
-1848 32 0
1848 -23 -32 0
-1849 23 0
-1849 1 0
1849 -23 -1 0
-1850 23 0
-1850 75 0
-1850 -71 0
1850 -23 -75 71 0
-1851 32 0
-1851 1 0
-1851 -7 0
1851 -32 -1 7 0
-1852 32 0
-1852 75 0
-1852 -80 0
1852 -32 -75 80 0
-1853 1 0
-1853 75 0
-1853 -49 0
1853 -1 -75 49 0
-1854 26 0
-1854 24 0
-1854 23 0
-1854 -19 0
1854 -26 -24 -23 19 0
-1855 26 0
-1855 24 0
-1855 32 0
1855 -26 -24 -32 0
-1856 26 0
-1856 24 0
-1856 1 0
1856 -26 -24 -1 0
-1857 26 0
-1857 24 0
-1857 75 0
1857 -26 -24 -75 0
-1858 26 0
-1858 23 0
-1858 32 0
1858 -26 -23 -32 0
-1859 26 0
-1859 23 0
-1859 1 0
1859 -26 -23 -1 0
-1860 26 0
-1860 23 0
-1860 75 0
-1860 -70 0
1860 -26 -23 -75 70 0
-1861 26 0
-1861 32 0
-1861 1 0
-1861 -6 0
1861 -26 -32 -1 6 0
-1862 26 0
-1862 32 0
-1862 75 0
-1862 -79 0
1862 -26 -32 -75 79 0
-1863 26 0
-1863 1 0
-1863 75 0
1863 -26 -1 -75 0
-1864 24 0
-1864 23 0
-1864 32 0
1864 -24 -23 -32 0
-1865 24 0
-1865 23 0
-1865 1 0
1865 -24 -23 -1 0
-1866 24 0
-1866 23 0
-1866 75 0
-1866 -68 0
1866 -24 -23 -75 68 0
-1867 24 0
-1867 32 0
-1867 1 0
1867 -24 -32 -1 0
-1868 24 0
-1868 32 0
-1868 75 0
1868 -24 -32 -75 0
-1869 24 0
-1869 1 0
-1869 75 0
1869 -24 -1 -75 0
-1870 23 0
-1870 32 0
-1870 1 0
1870 -23 -32 -1 0
-1871 23 0
-1871 32 0
-1871 75 0
1871 -23 -32 -75 0
-1872 23 0
-1872 1 0
-1872 75 0
1872 -23 -1 -75 0
-1873 32 0
-1873 1 0
-1873 75 0
-1873 -55 0
1873 -32 -1 -75 55 0
-1874 26 0
-1874 24 0
-1874 23 0
-1874 32 0
1874 -26 -24 -23 -32 0
-1875 26 0
-1875 24 0
-1875 23 0
-1875 1 0
1875 -26 -24 -23 -1 0
-1876 26 0
-1876 24 0
-1876 23 0
-1876 75 0
-1876 -67 0
1876 -26 -24 -23 -75 67 0
-1877 26 0
-1877 24 0
-1877 32 0
-1877 1 0
1877 -26 -24 -32 -1 0
-1878 26 0
-1878 24 0
-1878 32 0
-1878 75 0
1878 -26 -24 -32 -75 0
-1879 26 0
-1879 24 0
-1879 1 0
-1879 75 0
1879 -26 -24 -1 -75 0
-1880 26 0
-1880 23 0
-1880 32 0
-1880 1 0
1880 -26 -23 -32 -1 0
-1881 26 0
-1881 23 0
-1881 32 0
-1881 75 0
1881 -26 -23 -32 -75 0
-1882 26 0
-1882 23 0
-1882 1 0
-1882 75 0
1882 -26 -23 -1 -75 0
-1883 26 0
-1883 32 0
-1883 1 0
-1883 75 0
-1883 -54 0
1883 -26 -32 -1 -75 54 0
-1884 24 0
-1884 23 0
-1884 32 0
-1884 1 0
1884 -24 -23 -32 -1 0
-1885 24 0
-1885 23 0
-1885 32 0
-1885 75 0
1885 -24 -23 -32 -75 0
-1886 24 0
-1886 23 0
-1886 1 0
-1886 75 0
1886 -24 -23 -1 -75 0
-1887 24 0
-1887 32 0
-1887 1 0
-1887 75 0
1887 -24 -32 -1 -75 0
-1888 23 0
-1888 32 0
-1888 1 0
-1888 75 0
1888 -23 -32 -1 -75 0
-1889 26 0
-1889 24 0
-1889 23 0
-1889 32 0
-1889 1 0
1889 -26 -24 -23 -32 -1 0
-1890 26 0
-1890 24 0
-1890 23 0
-1890 32 0
-1890 75 0
1890 -26 -24 -23 -32 -75 0
-1891 26 0
-1891 24 0
-1891 23 0
-1891 1 0
-1891 75 0
1891 -26 -24 -23 -1 -75 0
-1892 26 0
-1892 24 0
-1892 32 0
-1892 1 0
-1892 75 0
1892 -26 -24 -32 -1 -75 0
-1893 26 0
-1893 23 0
-1893 32 0
-1893 1 0
-1893 75 0
1893 -26 -23 -32 -1 -75 0
-1894 24 0
-1894 23 0
-1894 32 0
-1894 1 0
-1894 75 0
1894 -24 -23 -32 -1 -75 0
-1895 26 0
-1895 24 0
-1895 23 0
-1895 32 0
-1895 1 0
-1895 75 0
1895 -26 -24 -23 -32 -1 -75 0
-27 1839 1840 1841 1842 1843 1844 1845 1846 1847 1848 1849 1850 1851 1852 1853 1854 1855 1856 1857 1858 1859 1860 1861 1862 1863 1864 1865 1866 1867 1868 1869 1870 1871 1872 1873 1874 1875 1876 1877 1878 1879 1880 1881 1882 1883 1884 1885 1886 1887 1888 1889 1890 1891 1892 1893 1894 1895 0
-1896 29 0
-1896 12 0
-1896 -17 0
1896 -29 -12 17 0
-1897 29 0
-1897 2 0
-1897 -3 0
1897 -29 -2 3 0
-1898 29 0
-1898 39 0
1898 -29 -39 0
-1899 29 0
-1899 76 0
-1899 -77 0
1899 -29 -76 77 0
-1900 12 0
-1900 2 0
1900 -12 -2 0
-1901 12 0
-1901 39 0
-1901 -38 0
1901 -12 -39 38 0
-1902 12 0
-1902 76 0
-1902 -60 0
1902 -12 -76 60 0
-1903 2 0
-1903 39 0
-1903 -33 0
1903 -2 -39 33 0
-1904 2 0
-1904 76 0
-1904 -50 0
1904 -2 -76 50 0
-1905 39 0
-1905 76 0
-1905 -87 0
1905 -39 -76 87 0
-1906 29 0
-1906 12 0
-1906 2 0
1906 -29 -12 -2 0
-1907 29 0
-1907 12 0
-1907 39 0
1907 -29 -12 -39 0
-1908 29 0
-1908 12 0
-1908 76 0
-1908 -65 0
1908 -29 -12 -76 65 0
-1909 29 0
-1909 2 0
-1909 39 0
1909 -29 -2 -39 0
-1910 29 0
-1910 2 0
-1910 76 0
-1910 -51 0
1910 -29 -2 -76 51 0
-1911 29 0
-1911 39 0
-1911 76 0
1911 -29 -39 -76 0
-1912 12 0
-1912 2 0
-1912 39 0
1912 -12 -2 -39 0
-1913 12 0
-1913 2 0
-1913 76 0
1913 -12 -2 -76 0
-1914 12 0
-1914 39 0
-1914 76 0
-1914 -86 0
1914 -12 -39 -76 86 0
-1915 2 0
-1915 39 0
-1915 76 0
-1915 -81 0
1915 -2 -39 -76 81 0
-1916 29 0
-1916 12 0
-1916 2 0
-1916 39 0
1916 -29 -12 -2 -39 0
-1917 29 0
-1917 12 0
-1917 2 0
-1917 76 0
1917 -29 -12 -2 -76 0
-1918 29 0
-1918 12 0
-1918 39 0
-1918 76 0
1918 -29 -12 -39 -76 0
-1919 29 0
-1919 2 0
-1919 39 0
-1919 76 0
1919 -29 -2 -39 -76 0
-1920 12 0
-1920 2 0
-1920 39 0
-1920 76 0
1920 -12 -2 -39 -76 0
-1921 29 0
-1921 12 0
-1921 2 0
-1921 39 0
-1921 76 0
1921 -29 -12 -2 -39 -76 0
-28 1896 1897 1898 1899 1900 1901 1902 1903 1904 1905 1906 1907 1908 1909 1910 1911 1912 1913 1914 1915 1916 1917 1918 1919 1920 1921 0
-1922 28 0
-1922 30 0
1922 -28 -30 0
-1923 28 0
-1923 17 0
-1923 -12 0
1923 -28 -17 12 0
-1924 28 0
-1924 3 0
-1924 -2 0
1924 -28 -3 2 0
-1925 28 0
-1925 77 0
-1925 -76 0
1925 -28 -77 76 0
-1926 30 0
-1926 17 0
-1926 -25 0
1926 -30 -17 25 0
-1927 30 0
-1927 3 0
-1927 -5 0
1927 -30 -3 5 0
-1928 30 0
-1928 77 0
-1928 -78 0
1928 -30 -77 78 0
-1929 17 0
-1929 3 0
1929 -17 -3 0
-1930 17 0
-1930 77 0
-1930 -65 0
1930 -17 -77 65 0
-1931 3 0
-1931 77 0
-1931 -51 0
1931 -3 -77 51 0
-1932 28 0
-1932 30 0
-1932 17 0
1932 -28 -30 -17 0
-1933 28 0
-1933 30 0
-1933 3 0
-1933 -4 0
1933 -28 -30 -3 4 0
-1934 28 0
-1934 30 0
-1934 77 0
1934 -28 -30 -77 0
-1935 28 0
-1935 17 0
-1935 3 0
1935 -28 -17 -3 0
-1936 28 0
-1936 17 0
-1936 77 0
-1936 -60 0
1936 -28 -17 -77 60 0
-1937 28 0
-1937 3 0
-1937 77 0
-1937 -50 0
1937 -28 -3 -77 50 0
-1938 30 0
-1938 17 0
-1938 3 0
1938 -30 -17 -3 0
-1939 30 0
-1939 17 0
-1939 77 0
-1939 -73 0
1939 -30 -17 -77 73 0
-1940 30 0
-1940 3 0
-1940 77 0
-1940 -53 0
1940 -30 -3 -77 53 0
-1941 17 0
-1941 3 0
-1941 77 0
1941 -17 -3 -77 0
-1942 28 0
-1942 30 0
-1942 17 0
-1942 3 0
1942 -28 -30 -17 -3 0
-1943 28 0
-1943 30 0
-1943 17 0
-1943 77 0
1943 -28 -30 -17 -77 0
-1944 28 0
-1944 30 0
-1944 3 0
-1944 77 0
-1944 -52 0
1944 -28 -30 -3 -77 52 0
-1945 28 0
-1945 17 0
-1945 3 0
-1945 77 0
1945 -28 -17 -3 -77 0
-1946 30 0
-1946 17 0
-1946 3 0
-1946 77 0
1946 -30 -17 -3 -77 0
-1947 28 0
-1947 30 0
-1947 17 0
-1947 3 0
-1947 77 0
1947 -28 -30 -17 -3 -77 0
-29 1922 1923 1924 1925 1926 1927 1928 1929 1930 1931 1932 1933 1934 1935 1936 1937 1938 1939 1940 1941 1942 1943 1944 1945 1946 1947 0
-1948 31 0
-1948 29 0
1948 -31 -29 0
-1949 31 0
-1949 25 0
-1949 -26 0
1949 -31 -25 26 0
-1950 31 0
-1950 5 0
-1950 -6 0
1950 -31 -5 6 0
-1951 31 0
-1951 78 0
-1951 -79 0
1951 -31 -78 79 0
-1952 29 0
-1952 25 0
-1952 -17 0
1952 -29 -25 17 0
-1953 29 0
-1953 5 0
-1953 -3 0
1953 -29 -5 3 0
-1954 29 0
-1954 78 0
-1954 -77 0
1954 -29 -78 77 0
-1955 25 0
-1955 5 0
1955 -25 -5 0
-1956 25 0
-1956 78 0
-1956 -73 0
1956 -25 -78 73 0
-1957 5 0
-1957 78 0
-1957 -53 0
1957 -5 -78 53 0
-1958 31 0
-1958 29 0
-1958 25 0
1958 -31 -29 -25 0
-1959 31 0
-1959 29 0
-1959 5 0
1959 -31 -29 -5 0
-1960 31 0
-1960 29 0
-1960 78 0
1960 -31 -29 -78 0
-1961 31 0
-1961 25 0
-1961 5 0
1961 -31 -25 -5 0
-1962 31 0
-1962 25 0
-1962 78 0
-1962 -74 0
1962 -31 -25 -78 74 0
-1963 31 0
-1963 5 0
-1963 78 0
-1963 -54 0
1963 -31 -5 -78 54 0
-1964 29 0
-1964 25 0
-1964 5 0
1964 -29 -25 -5 0
-1965 29 0
-1965 25 0
-1965 78 0
-1965 -65 0
1965 -29 -25 -78 65 0
-1966 29 0
-1966 5 0
-1966 78 0
-1966 -51 0
1966 -29 -5 -78 51 0
-1967 25 0
-1967 5 0
-1967 78 0
1967 -25 -5 -78 0
-1968 31 0
-1968 29 0
-1968 25 0
-1968 5 0
1968 -31 -29 -25 -5 0
-1969 31 0
-1969 29 0
-1969 25 0
-1969 78 0
1969 -31 -29 -25 -78 0
-1970 31 0
-1970 29 0
-1970 5 0
-1970 78 0
1970 -31 -29 -5 -78 0
-1971 31 0
-1971 25 0
-1971 5 0
-1971 78 0
1971 -31 -25 -5 -78 0
-1972 29 0
-1972 25 0
-1972 5 0
-1972 78 0
1972 -29 -25 -5 -78 0
-1973 31 0
-1973 29 0
-1973 25 0
-1973 5 0
-1973 78 0
1973 -31 -29 -25 -5 -78 0
-30 1948 1949 1950 1951 1952 1953 1954 1955 1956 1957 1958 1959 1960 1961 1962 1963 1964 1965 1966 1967 1968 1969 1970 1971 1972 1973 0
-1974 30 0
-1974 32 0
1974 -30 -32 0
-1975 30 0
-1975 26 0
-1975 -25 0
1975 -30 -26 25 0
-1976 30 0
-1976 6 0
-1976 -5 0
1976 -30 -6 5 0
-1977 30 0
-1977 79 0
-1977 -78 0
1977 -30 -79 78 0
-1978 32 0
-1978 26 0
-1978 -27 0
1978 -32 -26 27 0
-1979 32 0
-1979 6 0
-1979 -7 0
1979 -32 -6 7 0
-1980 32 0
-1980 79 0
-1980 -80 0
1980 -32 -79 80 0
-1981 26 0
-1981 6 0
1981 -26 -6 0
-1982 26 0
-1982 79 0
-1982 -74 0
1982 -26 -79 74 0
-1983 6 0
-1983 79 0
-1983 -54 0
1983 -6 -79 54 0
-1984 30 0
-1984 32 0
-1984 26 0
1984 -30 -32 -26 0
-1985 30 0
-1985 32 0
-1985 6 0
1985 -30 -32 -6 0
-1986 30 0
-1986 32 0
-1986 79 0
1986 -30 -32 -79 0
-1987 30 0
-1987 26 0
-1987 6 0
1987 -30 -26 -6 0
-1988 30 0
-1988 26 0
-1988 79 0
-1988 -73 0
1988 -30 -26 -79 73 0
-1989 30 0
-1989 6 0
-1989 79 0
-1989 -53 0
1989 -30 -6 -79 53 0
-1990 32 0
-1990 26 0
-1990 6 0
-1990 -1 0
1990 -32 -26 -6 1 0
-1991 32 0
-1991 26 0
-1991 79 0
-1991 -75 0
1991 -32 -26 -79 75 0
-1992 32 0
-1992 6 0
-1992 79 0
-1992 -55 0
1992 -32 -6 -79 55 0
-1993 26 0
-1993 6 0
-1993 79 0
1993 -26 -6 -79 0
-1994 30 0
-1994 32 0
-1994 26 0
-1994 6 0
1994 -30 -32 -26 -6 0
-1995 30 0
-1995 32 0
-1995 26 0
-1995 79 0
1995 -30 -32 -26 -79 0
-1996 30 0
-1996 32 0
-1996 6 0
-1996 79 0
1996 -30 -32 -6 -79 0
-1997 30 0
-1997 26 0
-1997 6 0
-1997 79 0
1997 -30 -26 -6 -79 0
-1998 32 0
-1998 26 0
-1998 6 0
-1998 79 0
-1998 -49 0
1998 -32 -26 -6 -79 49 0
-1999 30 0
-1999 32 0
-1999 26 0
-1999 6 0
-1999 79 0
1999 -30 -32 -26 -6 -79 0
-31 1974 1975 1976 1977 1978 1979 1980 1981 1982 1983 1984 1985 1986 1987 1988 1989 1990 1991 1992 1993 1994 1995 1996 1997 1998 1999 0
-2000 31 0
-2000 27 0
-2000 -26 0
2000 -31 -27 26 0
-2001 31 0
-2001 7 0
-2001 -6 0
2001 -31 -7 6 0
-2002 31 0
-2002 80 0
-2002 -79 0
2002 -31 -80 79 0
-2003 27 0
-2003 7 0
-2003 -1 0
2003 -27 -7 1 0
-2004 27 0
-2004 80 0
-2004 -75 0
2004 -27 -80 75 0
-2005 7 0
-2005 80 0
-2005 -55 0
2005 -7 -80 55 0
-2006 31 0
-2006 27 0
-2006 7 0
2006 -31 -27 -7 0
-2007 31 0
-2007 27 0
-2007 80 0
-2007 -74 0
2007 -31 -27 -80 74 0
-2008 31 0
-2008 7 0
-2008 80 0
-2008 -54 0
2008 -31 -7 -80 54 0
-2009 27 0
-2009 7 0
-2009 80 0
-2009 -49 0
2009 -27 -7 -80 49 0
-2010 31 0
-2010 27 0
-2010 7 0
-2010 80 0
2010 -31 -27 -7 -80 0
-32 2000 2001 2002 2003 2004 2005 2006 2007 2008 2009 2010 0
-2011 39 0
-2011 2 0
-2011 -28 0
2011 -39 -2 28 0
-2012 39 0
-2012 41 0
-2012 -48 0
2012 -39 -41 48 0
-2013 39 0
-2013 81 0
-2013 -87 0
2013 -39 -81 87 0
-2014 2 0
-2014 41 0
-2014 -40 0
2014 -2 -41 40 0
-2015 2 0
-2015 81 0
-2015 -50 0
2015 -2 -81 50 0
-2016 41 0
-2016 81 0
-2016 -89 0
2016 -41 -81 89 0
-2017 39 0
-2017 2 0
-2017 41 0
2017 -39 -2 -41 0
-2018 39 0
-2018 2 0
-2018 81 0
-2018 -76 0
2018 -39 -2 -81 76 0
-2019 39 0
-2019 41 0
-2019 81 0
-2019 -96 0
2019 -39 -41 -81 96 0
-2020 2 0
-2020 41 0
-2020 81 0
-2020 -88 0
2020 -2 -41 -81 88 0
-2021 39 0
-2021 2 0
-2021 41 0
-2021 81 0
2021 -39 -2 -41 -81 0
-33 2011 2012 2013 2014 2015 2016 2017 2018 2019 2020 2021 0
-2022 35 0
-2022 37 0
2022 -35 -37 0
-2023 35 0
-2023 8 0
-2023 -9 0
2023 -35 -8 9 0
-2024 35 0
-2024 42 0
-2024 -43 0
2024 -35 -42 43 0
-2025 35 0
-2025 82 0
-2025 -83 0
2025 -35 -82 83 0
-2026 37 0
-2026 8 0
-2026 -11 0
2026 -37 -8 11 0
-2027 37 0
-2027 42 0
-2027 -46 0
2027 -37 -42 46 0
-2028 37 0
-2028 82 0
-2028 -85 0
2028 -37 -82 85 0
-2029 8 0
-2029 42 0
2029 -8 -42 0
-2030 8 0
-2030 82 0
-2030 -56 0
2030 -8 -82 56 0
-2031 42 0
-2031 82 0
-2031 -90 0
2031 -42 -82 90 0
-2032 35 0
-2032 37 0
-2032 8 0
2032 -35 -37 -8 0
-2033 35 0
-2033 37 0
-2033 42 0
2033 -35 -37 -42 0
-2034 35 0
-2034 37 0
-2034 82 0
2034 -35 -37 -82 0
-2035 35 0
-2035 8 0
-2035 42 0
2035 -35 -8 -42 0
-2036 35 0
-2036 8 0
-2036 82 0
-2036 -57 0
2036 -35 -8 -82 57 0
-2037 35 0
-2037 42 0
-2037 82 0
-2037 -91 0
2037 -35 -42 -82 91 0
-2038 37 0
-2038 8 0
-2038 42 0
2038 -37 -8 -42 0
-2039 37 0
-2039 8 0
-2039 82 0
-2039 -59 0
2039 -37 -8 -82 59 0
-2040 37 0
-2040 42 0
-2040 82 0
-2040 -94 0
2040 -37 -42 -82 94 0
-2041 8 0
-2041 42 0
-2041 82 0
2041 -8 -42 -82 0
-2042 35 0
-2042 37 0
-2042 8 0
-2042 42 0
2042 -35 -37 -8 -42 0
-2043 35 0
-2043 37 0
-2043 8 0
-2043 82 0
2043 -35 -37 -8 -82 0
-2044 35 0
-2044 37 0
-2044 42 0
-2044 82 0
2044 -35 -37 -42 -82 0
-2045 35 0
-2045 8 0
-2045 42 0
-2045 82 0
2045 -35 -8 -42 -82 0
-2046 37 0
-2046 8 0
-2046 42 0
-2046 82 0
2046 -37 -8 -42 -82 0
-2047 35 0
-2047 37 0
-2047 8 0
-2047 42 0
-2047 82 0
2047 -35 -37 -8 -42 -82 0
-34 2022 2023 2024 2025 2026 2027 2028 2029 2030 2031 2032 2033 2034 2035 2036 2037 2038 2039 2040 2041 2042 2043 2044 2045 2046 2047 0
-2048 34 0
-2048 36 0
2048 -34 -36 0
-2049 34 0
-2049 9 0
-2049 -8 0
2049 -34 -9 8 0
-2050 34 0
-2050 43 0
-2050 -42 0
2050 -34 -43 42 0
-2051 34 0
-2051 83 0
-2051 -82 0
2051 -34 -83 82 0
-2052 36 0
-2052 9 0
-2052 -10 0
2052 -36 -9 10 0
-2053 36 0
-2053 43 0
-2053 -45 0
2053 -36 -43 45 0
-2054 36 0
-2054 83 0
-2054 -84 0
2054 -36 -83 84 0
-2055 9 0
-2055 43 0
2055 -9 -43 0
-2056 9 0
-2056 83 0
-2056 -57 0
2056 -9 -83 57 0
-2057 43 0
-2057 83 0
-2057 -91 0
2057 -43 -83 91 0
-2058 34 0
-2058 36 0
-2058 9 0
2058 -34 -36 -9 0
-2059 34 0
-2059 36 0
-2059 43 0
-2059 -44 0
2059 -34 -36 -43 44 0
-2060 34 0
-2060 36 0
-2060 83 0
2060 -34 -36 -83 0
-2061 34 0
-2061 9 0
-2061 43 0
2061 -34 -9 -43 0
-2062 34 0
-2062 9 0
-2062 83 0
-2062 -56 0
2062 -34 -9 -83 56 0
-2063 34 0
-2063 43 0
-2063 83 0
-2063 -90 0
2063 -34 -43 -83 90 0
-2064 36 0
-2064 9 0
-2064 43 0
2064 -36 -9 -43 0
-2065 36 0
-2065 9 0
-2065 83 0
-2065 -58 0
2065 -36 -9 -83 58 0
-2066 36 0
-2066 43 0
-2066 83 0
-2066 -93 0
2066 -36 -43 -83 93 0
-2067 9 0
-2067 43 0
-2067 83 0
2067 -9 -43 -83 0
-2068 34 0
-2068 36 0
-2068 9 0
-2068 43 0
2068 -34 -36 -9 -43 0
-2069 34 0
-2069 36 0
-2069 9 0
-2069 83 0
2069 -34 -36 -9 -83 0
-2070 34 0
-2070 36 0
-2070 43 0
-2070 83 0
-2070 -92 0
2070 -34 -36 -43 -83 92 0
-2071 34 0
-2071 9 0
-2071 43 0
-2071 83 0
2071 -34 -9 -43 -83 0
-2072 36 0
-2072 9 0
-2072 43 0
-2072 83 0
2072 -36 -9 -43 -83 0
-2073 34 0
-2073 36 0
-2073 9 0
-2073 43 0
-2073 83 0
2073 -34 -36 -9 -43 -83 0
-35 2048 2049 2050 2051 2052 2053 2054 2055 2056 2057 2058 2059 2060 2061 2062 2063 2064 2065 2066 2067 2068 2069 2070 2071 2072 2073 0
-2074 35 0
-2074 10 0
-2074 -9 0
2074 -35 -10 9 0
-2075 35 0
-2075 45 0
-2075 -43 0
2075 -35 -45 43 0
-2076 35 0
-2076 84 0
-2076 -83 0
2076 -35 -84 83 0
-2077 10 0
-2077 45 0
2077 -10 -45 0
-2078 10 0
-2078 84 0
-2078 -58 0
2078 -10 -84 58 0
-2079 45 0
-2079 84 0
-2079 -93 0
2079 -45 -84 93 0
-2080 35 0
-2080 10 0
-2080 45 0
2080 -35 -10 -45 0
-2081 35 0
-2081 10 0
-2081 84 0
-2081 -57 0
2081 -35 -10 -84 57 0
-2082 35 0
-2082 45 0
-2082 84 0
-2082 -91 0
2082 -35 -45 -84 91 0
-2083 10 0
-2083 45 0
-2083 84 0
2083 -10 -45 -84 0
-2084 35 0
-2084 10 0
-2084 45 0
-2084 84 0
2084 -35 -10 -45 -84 0
-36 2074 2075 2076 2077 2078 2079 2080 2081 2082 2083 2084 0
-2085 34 0
-2085 38 0
2085 -34 -38 0
-2086 34 0
-2086 11 0
-2086 -8 0
2086 -34 -11 8 0
-2087 34 0
-2087 46 0
-2087 -42 0
2087 -34 -46 42 0
-2088 34 0
-2088 85 0
-2088 -82 0
2088 -34 -85 82 0
-2089 38 0
-2089 11 0
-2089 -12 0
2089 -38 -11 12 0
-2090 38 0
-2090 46 0
-2090 -47 0
2090 -38 -46 47 0
-2091 38 0
-2091 85 0
-2091 -86 0
2091 -38 -85 86 0
-2092 11 0
-2092 46 0
2092 -11 -46 0
-2093 11 0
-2093 85 0
-2093 -59 0
2093 -11 -85 59 0
-2094 46 0
-2094 85 0
-2094 -94 0
2094 -46 -85 94 0
-2095 34 0
-2095 38 0
-2095 11 0
2095 -34 -38 -11 0
-2096 34 0
-2096 38 0
-2096 46 0
2096 -34 -38 -46 0
-2097 34 0
-2097 38 0
-2097 85 0
2097 -34 -38 -85 0
-2098 34 0
-2098 11 0
-2098 46 0
2098 -34 -11 -46 0
-2099 34 0
-2099 11 0
-2099 85 0
-2099 -56 0
2099 -34 -11 -85 56 0
-2100 34 0
-2100 46 0
-2100 85 0
-2100 -90 0
2100 -34 -46 -85 90 0
-2101 38 0
-2101 11 0
-2101 46 0
2101 -38 -11 -46 0
-2102 38 0
-2102 11 0
-2102 85 0
-2102 -60 0
2102 -38 -11 -85 60 0
-2103 38 0
-2103 46 0
-2103 85 0
-2103 -95 0
2103 -38 -46 -85 95 0
-2104 11 0
-2104 46 0
-2104 85 0
2104 -11 -46 -85 0
-2105 34 0
-2105 38 0
-2105 11 0
-2105 46 0
2105 -34 -38 -11 -46 0
-2106 34 0
-2106 38 0
-2106 11 0
-2106 85 0
2106 -34 -38 -11 -85 0
-2107 34 0
-2107 38 0
-2107 46 0
-2107 85 0
2107 -34 -38 -46 -85 0
-2108 34 0
-2108 11 0
-2108 46 0
-2108 85 0
2108 -34 -11 -46 -85 0
-2109 38 0
-2109 11 0
-2109 46 0
-2109 85 0
2109 -38 -11 -46 -85 0
-2110 34 0
-2110 38 0
-2110 11 0
-2110 46 0
-2110 85 0
2110 -34 -38 -11 -46 -85 0
-37 2085 2086 2087 2088 2089 2090 2091 2092 2093 2094 2095 2096 2097 2098 2099 2100 2101 2102 2103 2104 2105 2106 2107 2108 2109 2110 0
-2111 37 0
-2111 39 0
2111 -37 -39 0
-2112 37 0
-2112 12 0
-2112 -11 0
2112 -37 -12 11 0
-2113 37 0
-2113 47 0
-2113 -46 0
2113 -37 -47 46 0
-2114 37 0
-2114 86 0
-2114 -85 0
2114 -37 -86 85 0
-2115 39 0
-2115 12 0
-2115 -28 0
2115 -39 -12 28 0
-2116 39 0
-2116 47 0
-2116 -48 0
2116 -39 -47 48 0
-2117 39 0
-2117 86 0
-2117 -87 0
2117 -39 -86 87 0
-2118 12 0
-2118 47 0
2118 -12 -47 0
-2119 12 0
-2119 86 0
-2119 -60 0
2119 -12 -86 60 0
-2120 47 0
-2120 86 0
-2120 -95 0
2120 -47 -86 95 0
-2121 37 0
-2121 39 0
-2121 12 0
2121 -37 -39 -12 0
-2122 37 0
-2122 39 0
-2122 47 0
2122 -37 -39 -47 0
-2123 37 0
-2123 39 0
-2123 86 0
2123 -37 -39 -86 0
-2124 37 0
-2124 12 0
-2124 47 0
2124 -37 -12 -47 0
-2125 37 0
-2125 12 0
-2125 86 0
-2125 -59 0
2125 -37 -12 -86 59 0
-2126 37 0
-2126 47 0
-2126 86 0
-2126 -94 0
2126 -37 -47 -86 94 0
-2127 39 0
-2127 12 0
-2127 47 0
2127 -39 -12 -47 0
-2128 39 0
-2128 12 0
-2128 86 0
-2128 -76 0
2128 -39 -12 -86 76 0
-2129 39 0
-2129 47 0
-2129 86 0
-2129 -96 0
2129 -39 -47 -86 96 0
-2130 12 0
-2130 47 0
-2130 86 0
2130 -12 -47 -86 0
-2131 37 0
-2131 39 0
-2131 12 0
-2131 47 0
2131 -37 -39 -12 -47 0
-2132 37 0
-2132 39 0
-2132 12 0
-2132 86 0
2132 -37 -39 -12 -86 0
-2133 37 0
-2133 39 0
-2133 47 0
-2133 86 0
2133 -37 -39 -47 -86 0
-2134 37 0
-2134 12 0
-2134 47 0
-2134 86 0
2134 -37 -12 -47 -86 0
-2135 39 0
-2135 12 0
-2135 47 0
-2135 86 0
2135 -39 -12 -47 -86 0
-2136 37 0
-2136 39 0
-2136 12 0
-2136 47 0
-2136 86 0
2136 -37 -39 -12 -47 -86 0
-38 2111 2112 2113 2114 2115 2116 2117 2118 2119 2120 2121 2122 2123 2124 2125 2126 2127 2128 2129 2130 2131 2132 2133 2134 2135 2136 0
-2137 38 0
-2137 33 0
2137 -38 -33 0
-2138 38 0
-2138 28 0
-2138 -12 0
2138 -38 -28 12 0
-2139 38 0
-2139 48 0
-2139 -47 0
2139 -38 -48 47 0
-2140 38 0
-2140 87 0
-2140 -86 0
2140 -38 -87 86 0
-2141 33 0
-2141 28 0
-2141 -2 0
2141 -33 -28 2 0
-2142 33 0
-2142 48 0
-2142 -41 0
2142 -33 -48 41 0
-2143 33 0
-2143 87 0
-2143 -81 0
2143 -33 -87 81 0
-2144 28 0
-2144 48 0
2144 -28 -48 0
-2145 28 0
-2145 87 0
-2145 -76 0
2145 -28 -87 76 0
-2146 48 0
-2146 87 0
-2146 -96 0
2146 -48 -87 96 0
-2147 38 0
-2147 33 0
-2147 28 0
2147 -38 -33 -28 0
-2148 38 0
-2148 33 0
-2148 48 0
2148 -38 -33 -48 0
-2149 38 0
-2149 33 0
-2149 87 0
2149 -38 -33 -87 0
-2150 38 0
-2150 28 0
-2150 48 0
2150 -38 -28 -48 0
-2151 38 0
-2151 28 0
-2151 87 0
-2151 -60 0
2151 -38 -28 -87 60 0
-2152 38 0
-2152 48 0
-2152 87 0
-2152 -95 0
2152 -38 -48 -87 95 0
-2153 33 0
-2153 28 0
-2153 48 0
-2153 -40 0
2153 -33 -28 -48 40 0
-2154 33 0
-2154 28 0
-2154 87 0
-2154 -50 0
2154 -33 -28 -87 50 0
-2155 33 0
-2155 48 0
-2155 87 0
-2155 -89 0
2155 -33 -48 -87 89 0
-2156 28 0
-2156 48 0
-2156 87 0
2156 -28 -48 -87 0
-2157 38 0
-2157 33 0
-2157 28 0
-2157 48 0
2157 -38 -33 -28 -48 0
-2158 38 0
-2158 33 0
-2158 28 0
-2158 87 0
2158 -38 -33 -28 -87 0
-2159 38 0
-2159 33 0
-2159 48 0
-2159 87 0
2159 -38 -33 -48 -87 0
-2160 38 0
-2160 28 0
-2160 48 0
-2160 87 0
2160 -38 -28 -48 -87 0
-2161 33 0
-2161 28 0
-2161 48 0
-2161 87 0
-2161 -88 0
2161 -33 -28 -48 -87 88 0
-2162 38 0
-2162 33 0
-2162 28 0
-2162 48 0
-2162 87 0
2162 -38 -33 -28 -48 -87 0
-39 2137 2138 2139 2140 2141 2142 2143 2144 2145 2146 2147 2148 2149 2150 2151 2152 2153 2154 2155 2156 2157 2158 2159 2160 2161 2162 0
-2163 41 0
-2163 2 0
-2163 -33 0
2163 -41 -2 33 0
-2164 41 0
-2164 88 0
-2164 -89 0
2164 -41 -88 89 0
-2165 2 0
-2165 88 0
-2165 -50 0
2165 -2 -88 50 0
-2166 41 0
-2166 2 0
-2166 88 0
-2166 -81 0
2166 -41 -2 -88 81 0
-40 2163 2164 2165 2166 0
-2167 48 0
-2167 40 0
2167 -48 -40 0
-2168 48 0
-2168 33 0
-2168 -39 0
2168 -48 -33 39 0
-2169 48 0
-2169 89 0
-2169 -96 0
2169 -48 -89 96 0
-2170 40 0
-2170 33 0
-2170 -2 0
2170 -40 -33 2 0
-2171 40 0
-2171 89 0
-2171 -88 0
2171 -40 -89 88 0
-2172 33 0
-2172 89 0
-2172 -81 0
2172 -33 -89 81 0
-2173 48 0
-2173 40 0
-2173 33 0
-2173 -28 0
2173 -48 -40 -33 28 0
-2174 48 0
-2174 40 0
-2174 89 0
2174 -48 -40 -89 0
-2175 48 0
-2175 33 0
-2175 89 0
-2175 -87 0
2175 -48 -33 -89 87 0
-2176 40 0
-2176 33 0
-2176 89 0
-2176 -50 0
2176 -40 -33 -89 50 0
-2177 48 0
-2177 40 0
-2177 33 0
-2177 89 0
-2177 -76 0
2177 -48 -40 -33 -89 76 0
-41 2167 2168 2169 2170 2171 2172 2173 2174 2175 2176 2177 0
-2178 43 0
-2178 44 0
-2178 -45 0
2178 -43 -44 45 0
-2179 43 0
-2179 46 0
2179 -43 -46 0
-2180 43 0
-2180 34 0
-2180 -35 0
2180 -43 -34 35 0
-2181 43 0
-2181 90 0
-2181 -91 0
2181 -43 -90 91 0
-2182 44 0
-2182 46 0
2182 -44 -46 0
-2183 44 0
-2183 34 0
2183 -44 -34 0
-2184 44 0
-2184 90 0
-2184 -92 0
2184 -44 -90 92 0
-2185 46 0
-2185 34 0
-2185 -37 0
2185 -46 -34 37 0
-2186 46 0
-2186 90 0
-2186 -94 0
2186 -46 -90 94 0
-2187 34 0
-2187 90 0
-2187 -82 0
2187 -34 -90 82 0
-2188 43 0
-2188 44 0
-2188 46 0
2188 -43 -44 -46 0
-2189 43 0
-2189 44 0
-2189 34 0
-2189 -36 0
2189 -43 -44 -34 36 0
-2190 43 0
-2190 44 0
-2190 90 0
-2190 -93 0
2190 -43 -44 -90 93 0
-2191 43 0
-2191 46 0
-2191 34 0
2191 -43 -46 -34 0
-2192 43 0
-2192 46 0
-2192 90 0
2192 -43 -46 -90 0
-2193 43 0
-2193 34 0
-2193 90 0
-2193 -83 0
2193 -43 -34 -90 83 0
-2194 44 0
-2194 46 0
-2194 34 0
2194 -44 -46 -34 0
-2195 44 0
-2195 46 0
-2195 90 0
2195 -44 -46 -90 0
-2196 44 0
-2196 34 0
-2196 90 0
2196 -44 -34 -90 0
-2197 46 0
-2197 34 0
-2197 90 0
-2197 -85 0
2197 -46 -34 -90 85 0
-2198 43 0
-2198 44 0
-2198 46 0
-2198 34 0
2198 -43 -44 -46 -34 0
-2199 43 0
-2199 44 0
-2199 46 0
-2199 90 0
2199 -43 -44 -46 -90 0
-2200 43 0
-2200 44 0
-2200 34 0
-2200 90 0
-2200 -84 0
2200 -43 -44 -34 -90 84 0
-2201 43 0
-2201 46 0
-2201 34 0
-2201 90 0
2201 -43 -46 -34 -90 0
-2202 44 0
-2202 46 0
-2202 34 0
-2202 90 0
2202 -44 -46 -34 -90 0
-2203 43 0
-2203 44 0
-2203 46 0
-2203 34 0
-2203 90 0
2203 -43 -44 -46 -34 -90 0
-42 2178 2179 2180 2181 2182 2183 2184 2185 2186 2187 2188 2189 2190 2191 2192 2193 2194 2195 2196 2197 2198 2199 2200 2201 2202 2203 0
-2204 42 0
-2204 45 0
-2204 -44 0
2204 -42 -45 44 0
-2205 42 0
-2205 35 0
-2205 -34 0
2205 -42 -35 34 0
-2206 42 0
-2206 91 0
-2206 -90 0
2206 -42 -91 90 0
-2207 45 0
-2207 35 0
-2207 -36 0
2207 -45 -35 36 0
-2208 45 0
-2208 91 0
-2208 -93 0
2208 -45 -91 93 0
-2209 35 0
-2209 91 0
-2209 -83 0
2209 -35 -91 83 0
-2210 42 0
-2210 45 0
-2210 35 0
2210 -42 -45 -35 0
-2211 42 0
-2211 45 0
-2211 91 0
-2211 -92 0
2211 -42 -45 -91 92 0
-2212 42 0
-2212 35 0
-2212 91 0
-2212 -82 0
2212 -42 -35 -91 82 0
-2213 45 0
-2213 35 0
-2213 91 0
-2213 -84 0
2213 -45 -35 -91 84 0
-2214 42 0
-2214 45 0
-2214 35 0
-2214 91 0
2214 -42 -45 -35 -91 0
-43 2204 2205 2206 2207 2208 2209 2210 2211 2212 2213 2214 0
-2215 45 0
-2215 42 0
-2215 -43 0
2215 -45 -42 43 0
-2216 45 0
-2216 92 0
-2216 -93 0
2216 -45 -92 93 0
-2217 42 0
-2217 92 0
-2217 -90 0
2217 -42 -92 90 0
-2218 45 0
-2218 42 0
-2218 92 0
-2218 -91 0
2218 -45 -42 -92 91 0
-44 2215 2216 2217 2218 0
-2219 44 0
-2219 43 0
-2219 -42 0
2219 -44 -43 42 0
-2220 44 0
-2220 36 0
2220 -44 -36 0
-2221 44 0
-2221 93 0
-2221 -92 0
2221 -44 -93 92 0
-2222 43 0
-2222 36 0
-2222 -35 0
2222 -43 -36 35 0
-2223 43 0
-2223 93 0
-2223 -91 0
2223 -43 -93 91 0
-2224 36 0
-2224 93 0
-2224 -84 0
2224 -36 -93 84 0
-2225 44 0
-2225 43 0
-2225 36 0
-2225 -34 0
2225 -44 -43 -36 34 0
-2226 44 0
-2226 43 0
-2226 93 0
-2226 -90 0
2226 -44 -43 -93 90 0
-2227 44 0
-2227 36 0
-2227 93 0
2227 -44 -36 -93 0
-2228 43 0
-2228 36 0
-2228 93 0
-2228 -83 0
2228 -43 -36 -93 83 0
-2229 44 0
-2229 43 0
-2229 36 0
-2229 93 0
-2229 -82 0
2229 -44 -43 -36 -93 82 0
-45 2219 2220 2221 2222 2223 2224 2225 2226 2227 2228 2229 0
-2230 42 0
-2230 47 0
2230 -42 -47 0
-2231 42 0
-2231 37 0
-2231 -34 0
2231 -42 -37 34 0
-2232 42 0
-2232 94 0
-2232 -90 0
2232 -42 -94 90 0
-2233 47 0
-2233 37 0
-2233 -38 0
2233 -47 -37 38 0
-2234 47 0
-2234 94 0
-2234 -95 0
2234 -47 -94 95 0
-2235 37 0
-2235 94 0
-2235 -85 0
2235 -37 -94 85 0
-2236 42 0
-2236 47 0
-2236 37 0
2236 -42 -47 -37 0
-2237 42 0
-2237 47 0
-2237 94 0
2237 -42 -47 -94 0
-2238 42 0
-2238 37 0
-2238 94 0
-2238 -82 0
2238 -42 -37 -94 82 0
-2239 47 0
-2239 37 0
-2239 94 0
-2239 -86 0
2239 -47 -37 -94 86 0
-2240 42 0
-2240 47 0
-2240 37 0
-2240 94 0
2240 -42 -47 -37 -94 0
-46 2230 2231 2232 2233 2234 2235 2236 2237 2238 2239 2240 0
-2241 46 0
-2241 48 0
2241 -46 -48 0
-2242 46 0
-2242 38 0
-2242 -37 0
2242 -46 -38 37 0
-2243 46 0
-2243 95 0
-2243 -94 0
2243 -46 -95 94 0
-2244 48 0
-2244 38 0
-2244 -39 0
2244 -48 -38 39 0
-2245 48 0
-2245 95 0
-2245 -96 0
2245 -48 -95 96 0
-2246 38 0
-2246 95 0
-2246 -86 0
2246 -38 -95 86 0
-2247 46 0
-2247 48 0
-2247 38 0
2247 -46 -48 -38 0
-2248 46 0
-2248 48 0
-2248 95 0
2248 -46 -48 -95 0
-2249 46 0
-2249 38 0
-2249 95 0
-2249 -85 0
2249 -46 -38 -95 85 0
-2250 48 0
-2250 38 0
-2250 95 0
-2250 -87 0
2250 -48 -38 -95 87 0
-2251 46 0
-2251 48 0
-2251 38 0
-2251 95 0
2251 -46 -48 -38 -95 0
-47 2241 2242 2243 2244 2245 2246 2247 2248 2249 2250 2251 0
-2252 47 0
-2252 41 0
2252 -47 -41 0
-2253 47 0
-2253 39 0
-2253 -38 0
2253 -47 -39 38 0
-2254 47 0
-2254 96 0
-2254 -95 0
2254 -47 -96 95 0
-2255 41 0
-2255 39 0
-2255 -33 0
2255 -41 -39 33 0
-2256 41 0
-2256 96 0
-2256 -89 0
2256 -41 -96 89 0
-2257 39 0
-2257 96 0
-2257 -87 0
2257 -39 -96 87 0
-2258 47 0
-2258 41 0
-2258 39 0
2258 -47 -41 -39 0
-2259 47 0
-2259 41 0
-2259 96 0
2259 -47 -41 -96 0
-2260 47 0
-2260 39 0
-2260 96 0
-2260 -86 0
2260 -47 -39 -96 86 0
-2261 41 0
-2261 39 0
-2261 96 0
-2261 -81 0
2261 -41 -39 -96 81 0
-2262 47 0
-2262 41 0
-2262 39 0
-2262 96 0
2262 -47 -41 -39 -96 0
-48 2252 2253 2254 2255 2256 2257 2258 2259 2260 2261 2262 0
-2263 55 0
-2263 75 0
-2263 -80 0
2263 -55 -75 80 0
-2264 55 0
-2264 1 0
-2264 -7 0
2264 -55 -1 7 0
-2265 75 0
-2265 1 0
-2265 -27 0
2265 -75 -1 27 0
-2266 55 0
-2266 75 0
-2266 1 0
-2266 -32 0
2266 -55 -75 -1 32 0
-49 2263 2264 2265 2266 0
-2267 51 0
-2267 52 0
-2267 -53 0
2267 -51 -52 53 0
-2268 51 0
-2268 76 0
-2268 -77 0
2268 -51 -76 77 0
-2269 51 0
-2269 81 0
2269 -51 -81 0
-2270 51 0
-2270 88 0
2270 -51 -88 0
-2271 51 0
-2271 2 0
-2271 -3 0
2271 -51 -2 3 0
-2272 52 0
-2272 76 0
2272 -52 -76 0
-2273 52 0
-2273 81 0
2273 -52 -81 0
-2274 52 0
-2274 88 0
2274 -52 -88 0
-2275 52 0
-2275 2 0
-2275 -4 0
2275 -52 -2 4 0
-2276 76 0
-2276 81 0
-2276 -87 0
2276 -76 -81 87 0
-2277 76 0
-2277 88 0
2277 -76 -88 0
-2278 76 0
-2278 2 0
-2278 -28 0
2278 -76 -2 28 0
-2279 81 0
-2279 88 0
-2279 -89 0
2279 -81 -88 89 0
-2280 81 0
-2280 2 0
-2280 -33 0
2280 -81 -2 33 0
-2281 88 0
-2281 2 0
-2281 -40 0
2281 -88 -2 40 0
-2282 51 0
-2282 52 0
-2282 76 0
-2282 -78 0
2282 -51 -52 -76 78 0
-2283 51 0
-2283 52 0
-2283 81 0
2283 -51 -52 -81 0
-2284 51 0
-2284 52 0
-2284 88 0
2284 -51 -52 -88 0
-2285 51 0
-2285 52 0
-2285 2 0
-2285 -5 0
2285 -51 -52 -2 5 0
-2286 51 0
-2286 76 0
-2286 81 0
2286 -51 -76 -81 0
-2287 51 0
-2287 76 0
-2287 88 0
2287 -51 -76 -88 0
-2288 51 0
-2288 76 0
-2288 2 0
-2288 -29 0
2288 -51 -76 -2 29 0
-2289 51 0
-2289 81 0
-2289 88 0
2289 -51 -81 -88 0
-2290 51 0
-2290 81 0
-2290 2 0
2290 -51 -81 -2 0
-2291 51 0
-2291 88 0
-2291 2 0
2291 -51 -88 -2 0
-2292 52 0
-2292 76 0
-2292 81 0
2292 -52 -76 -81 0
-2293 52 0
-2293 76 0
-2293 88 0
2293 -52 -76 -88 0
-2294 52 0
-2294 76 0
-2294 2 0
2294 -52 -76 -2 0
-2295 52 0
-2295 81 0
-2295 88 0
2295 -52 -81 -88 0
-2296 52 0
-2296 81 0
-2296 2 0
2296 -52 -81 -2 0
-2297 52 0
-2297 88 0
-2297 2 0
2297 -52 -88 -2 0
-2298 76 0
-2298 81 0
-2298 88 0
-2298 -96 0
2298 -76 -81 -88 96 0
-2299 76 0
-2299 81 0
-2299 2 0
-2299 -39 0
2299 -76 -81 -2 39 0
-2300 76 0
-2300 88 0
-2300 2 0
2300 -76 -88 -2 0
-2301 81 0
-2301 88 0
-2301 2 0
-2301 -41 0
2301 -81 -88 -2 41 0
-2302 51 0
-2302 52 0
-2302 76 0
-2302 81 0
2302 -51 -52 -76 -81 0
-2303 51 0
-2303 52 0
-2303 76 0
-2303 88 0
2303 -51 -52 -76 -88 0
-2304 51 0
-2304 52 0
-2304 76 0
-2304 2 0
-2304 -30 0
2304 -51 -52 -76 -2 30 0
-2305 51 0
-2305 52 0
-2305 81 0
-2305 88 0
2305 -51 -52 -81 -88 0
-2306 51 0
-2306 52 0
-2306 81 0
-2306 2 0
2306 -51 -52 -81 -2 0
-2307 51 0
-2307 52 0
-2307 88 0
-2307 2 0
2307 -51 -52 -88 -2 0
-2308 51 0
-2308 76 0
-2308 81 0
-2308 88 0
2308 -51 -76 -81 -88 0
-2309 51 0
-2309 76 0
-2309 81 0
-2309 2 0
2309 -51 -76 -81 -2 0
-2310 51 0
-2310 76 0
-2310 88 0
-2310 2 0
2310 -51 -76 -88 -2 0
-2311 51 0
-2311 81 0
-2311 88 0
-2311 2 0
2311 -51 -81 -88 -2 0
-2312 52 0
-2312 76 0
-2312 81 0
-2312 88 0
2312 -52 -76 -81 -88 0
-2313 52 0
-2313 76 0
-2313 81 0
-2313 2 0
2313 -52 -76 -81 -2 0
-2314 52 0
-2314 76 0
-2314 88 0
-2314 2 0
2314 -52 -76 -88 -2 0
-2315 52 0
-2315 81 0
-2315 88 0
-2315 2 0
2315 -52 -81 -88 -2 0
-2316 76 0
-2316 81 0
-2316 88 0
-2316 2 0
-2316 -48 0
2316 -76 -81 -88 -2 48 0
-2317 51 0
-2317 52 0
-2317 76 0
-2317 81 0
-2317 88 0
2317 -51 -52 -76 -81 -88 0
-2318 51 0
-2318 52 0
-2318 76 0
-2318 81 0
-2318 2 0
2318 -51 -52 -76 -81 -2 0
-2319 51 0
-2319 52 0
-2319 76 0
-2319 88 0
-2319 2 0
2319 -51 -52 -76 -88 -2 0
-2320 51 0
-2320 52 0
-2320 81 0
-2320 88 0
-2320 2 0
2320 -51 -52 -81 -88 -2 0
-2321 51 0
-2321 76 0
-2321 81 0
-2321 88 0
-2321 2 0
2321 -51 -76 -81 -88 -2 0
-2322 52 0
-2322 76 0
-2322 81 0
-2322 88 0
-2322 2 0
2322 -52 -76 -81 -88 -2 0
-2323 51 0
-2323 52 0
-2323 76 0
-2323 81 0
-2323 88 0
-2323 2 0
2323 -51 -52 -76 -81 -88 -2 0
-50 2267 2268 2269 2270 2271 2272 2273 2274 2275 2276 2277 2278 2279 2280 2281 2282 2283 2284 2285 2286 2287 2288 2289 2290 2291 2292 2293 2294 2295 2296 2297 2298 2299 2300 2301 2302 2303 2304 2305 2306 2307 2308 2309 2310 2311 2312 2313 2314 2315 2316 2317 2318 2319 2320 2321 2322 2323 0
-2324 50 0
-2324 53 0
-2324 -52 0
2324 -50 -53 52 0
-2325 50 0
-2325 77 0
-2325 -76 0
2325 -50 -77 76 0
-2326 50 0
-2326 3 0
-2326 -2 0
2326 -50 -3 2 0
-2327 53 0
-2327 77 0
-2327 -78 0
2327 -53 -77 78 0
-2328 53 0
-2328 3 0
-2328 -5 0
2328 -53 -3 5 0
-2329 77 0
-2329 3 0
-2329 -29 0
2329 -77 -3 29 0
-2330 50 0
-2330 53 0
-2330 77 0
2330 -50 -53 -77 0
-2331 50 0
-2331 53 0
-2331 3 0
-2331 -4 0
2331 -50 -53 -3 4 0
-2332 50 0
-2332 77 0
-2332 3 0
-2332 -28 0
2332 -50 -77 -3 28 0
-2333 53 0
-2333 77 0
-2333 3 0
-2333 -30 0
2333 -53 -77 -3 30 0
-2334 50 0
-2334 53 0
-2334 77 0
-2334 3 0
2334 -50 -53 -77 -3 0
-51 2324 2325 2326 2327 2328 2329 2330 2331 2332 2333 2334 0
-2335 53 0
-2335 50 0
-2335 -51 0
2335 -53 -50 51 0
-2336 53 0
-2336 4 0
-2336 -5 0
2336 -53 -4 5 0
-2337 50 0
-2337 4 0
-2337 -2 0
2337 -50 -4 2 0
-2338 53 0
-2338 50 0
-2338 4 0
-2338 -3 0
2338 -53 -50 -4 3 0
-52 2335 2336 2337 2338 0
-2339 54 0
-2339 52 0
2339 -54 -52 0
-2340 54 0
-2340 51 0
2340 -54 -51 0
-2341 54 0
-2341 78 0
-2341 -79 0
2341 -54 -78 79 0
-2342 54 0
-2342 5 0
-2342 -6 0
2342 -54 -5 6 0
-2343 52 0
-2343 51 0
-2343 -50 0
2343 -52 -51 50 0
-2344 52 0
-2344 78 0
2344 -52 -78 0
-2345 52 0
-2345 5 0
-2345 -4 0
2345 -52 -5 4 0
-2346 51 0
-2346 78 0
-2346 -77 0
2346 -51 -78 77 0
-2347 51 0
-2347 5 0
-2347 -3 0
2347 -51 -5 3 0
-2348 78 0
-2348 5 0
-2348 -30 0
2348 -78 -5 30 0
-2349 54 0
-2349 52 0
-2349 51 0
2349 -54 -52 -51 0
-2350 54 0
-2350 52 0
-2350 78 0
2350 -54 -52 -78 0
-2351 54 0
-2351 52 0
-2351 5 0
2351 -54 -52 -5 0
-2352 54 0
-2352 51 0
-2352 78 0
2352 -54 -51 -78 0
-2353 54 0
-2353 51 0
-2353 5 0
2353 -54 -51 -5 0
-2354 54 0
-2354 78 0
-2354 5 0
-2354 -31 0
2354 -54 -78 -5 31 0
-2355 52 0
-2355 51 0
-2355 78 0
-2355 -76 0
2355 -52 -51 -78 76 0
-2356 52 0
-2356 51 0
-2356 5 0
-2356 -2 0
2356 -52 -51 -5 2 0
-2357 52 0
-2357 78 0
-2357 5 0
2357 -52 -78 -5 0
-2358 51 0
-2358 78 0
-2358 5 0
-2358 -29 0
2358 -51 -78 -5 29 0
-2359 54 0
-2359 52 0
-2359 51 0
-2359 78 0
2359 -54 -52 -51 -78 0
-2360 54 0
-2360 52 0
-2360 51 0
-2360 5 0
2360 -54 -52 -51 -5 0
-2361 54 0
-2361 52 0
-2361 78 0
-2361 5 0
2361 -54 -52 -78 -5 0
-2362 54 0
-2362 51 0
-2362 78 0
-2362 5 0
2362 -54 -51 -78 -5 0
-2363 52 0
-2363 51 0
-2363 78 0
-2363 5 0
-2363 -28 0
2363 -52 -51 -78 -5 28 0
-2364 54 0
-2364 52 0
-2364 51 0
-2364 78 0
-2364 5 0
2364 -54 -52 -51 -78 -5 0
-53 2339 2340 2341 2342 2343 2344 2345 2346 2347 2348 2349 2350 2351 2352 2353 2354 2355 2356 2357 2358 2359 2360 2361 2362 2363 2364 0
-2365 53 0
-2365 55 0
2365 -53 -55 0
-2366 53 0
-2366 79 0
-2366 -78 0
2366 -53 -79 78 0
-2367 53 0
-2367 6 0
-2367 -5 0
2367 -53 -6 5 0
-2368 55 0
-2368 79 0
-2368 -80 0
2368 -55 -79 80 0
-2369 55 0
-2369 6 0
-2369 -7 0
2369 -55 -6 7 0
-2370 79 0
-2370 6 0
-2370 -31 0
2370 -79 -6 31 0
-2371 53 0
-2371 55 0
-2371 79 0
2371 -53 -55 -79 0
-2372 53 0
-2372 55 0
-2372 6 0
2372 -53 -55 -6 0
-2373 53 0
-2373 79 0
-2373 6 0
-2373 -30 0
2373 -53 -79 -6 30 0
-2374 55 0
-2374 79 0
-2374 6 0
-2374 -32 0
2374 -55 -79 -6 32 0
-2375 53 0
-2375 55 0
-2375 79 0
-2375 6 0
2375 -53 -55 -79 -6 0
-54 2365 2366 2367 2368 2369 2370 2371 2372 2373 2374 2375 0
-2376 54 0
-2376 49 0
2376 -54 -49 0
-2377 54 0
-2377 80 0
-2377 -79 0
2377 -54 -80 79 0
-2378 54 0
-2378 7 0
-2378 -6 0
2378 -54 -7 6 0
-2379 49 0
-2379 80 0
-2379 -75 0
2379 -49 -80 75 0
-2380 49 0
-2380 7 0
-2380 -1 0
2380 -49 -7 1 0
-2381 80 0
-2381 7 0
-2381 -32 0
2381 -80 -7 32 0
-2382 54 0
-2382 49 0
-2382 80 0
-2382 -74 0
2382 -54 -49 -80 74 0
-2383 54 0
-2383 49 0
-2383 7 0
2383 -54 -49 -7 0
-2384 54 0
-2384 80 0
-2384 7 0
-2384 -31 0
2384 -54 -80 -7 31 0
-2385 49 0
-2385 80 0
-2385 7 0
-2385 -27 0
2385 -49 -80 -7 27 0
-2386 54 0
-2386 49 0
-2386 80 0
-2386 7 0
-2386 -26 0
2386 -54 -49 -80 -7 26 0
-55 2376 2377 2378 2379 2380 2381 2382 2383 2384 2385 2386 0
-2387 57 0
-2387 59 0
2387 -57 -59 0
-2388 57 0
-2388 61 0
-2388 -62 0
2388 -57 -61 62 0
-2389 57 0
-2389 82 0
-2389 -83 0
2389 -57 -82 83 0
-2390 57 0
-2390 8 0
-2390 -9 0
2390 -57 -8 9 0
-2391 59 0
-2391 61 0
-2391 -64 0
2391 -59 -61 64 0
-2392 59 0
-2392 82 0
-2392 -85 0
2392 -59 -82 85 0
-2393 59 0
-2393 8 0
-2393 -11 0
2393 -59 -8 11 0
-2394 61 0
-2394 82 0
2394 -61 -82 0
-2395 61 0
-2395 8 0
-2395 -13 0
2395 -61 -8 13 0
-2396 82 0
-2396 8 0
-2396 -34 0
2396 -82 -8 34 0
-2397 57 0
-2397 59 0
-2397 61 0
2397 -57 -59 -61 0
-2398 57 0
-2398 59 0
-2398 82 0
2398 -57 -59 -82 0
-2399 57 0
-2399 59 0
-2399 8 0
2399 -57 -59 -8 0
-2400 57 0
-2400 61 0
-2400 82 0
2400 -57 -61 -82 0
-2401 57 0
-2401 61 0
-2401 8 0
-2401 -14 0
2401 -57 -61 -8 14 0
-2402 57 0
-2402 82 0
-2402 8 0
-2402 -35 0
2402 -57 -82 -8 35 0
-2403 59 0
-2403 61 0
-2403 82 0
2403 -59 -61 -82 0
-2404 59 0
-2404 61 0
-2404 8 0
-2404 -16 0
2404 -59 -61 -8 16 0
-2405 59 0
-2405 82 0
-2405 8 0
-2405 -37 0
2405 -59 -82 -8 37 0
-2406 61 0
-2406 82 0
-2406 8 0
2406 -61 -82 -8 0
-2407 57 0
-2407 59 0
-2407 61 0
-2407 82 0
2407 -57 -59 -61 -82 0
-2408 57 0
-2408 59 0
-2408 61 0
-2408 8 0
2408 -57 -59 -61 -8 0
-2409 57 0
-2409 59 0
-2409 82 0
-2409 8 0
2409 -57 -59 -82 -8 0
-2410 57 0
-2410 61 0
-2410 82 0
-2410 8 0
2410 -57 -61 -82 -8 0
-2411 59 0
-2411 61 0
-2411 82 0
-2411 8 0
2411 -59 -61 -82 -8 0
-2412 57 0
-2412 59 0
-2412 61 0
-2412 82 0
-2412 8 0
2412 -57 -59 -61 -82 -8 0
-56 2387 2388 2389 2390 2391 2392 2393 2394 2395 2396 2397 2398 2399 2400 2401 2402 2403 2404 2405 2406 2407 2408 2409 2410 2411 2412 0
-2413 56 0
-2413 58 0
2413 -56 -58 0
-2414 56 0
-2414 62 0
-2414 -61 0
2414 -56 -62 61 0
-2415 56 0
-2415 83 0
-2415 -82 0
2415 -56 -83 82 0
-2416 56 0
-2416 9 0
-2416 -8 0
2416 -56 -9 8 0
-2417 58 0
-2417 62 0
-2417 -63 0
2417 -58 -62 63 0
-2418 58 0
-2418 83 0
-2418 -84 0
2418 -58 -83 84 0
-2419 58 0
-2419 9 0
-2419 -10 0
2419 -58 -9 10 0
-2420 62 0
-2420 83 0
2420 -62 -83 0
-2421 62 0
-2421 9 0
-2421 -14 0
2421 -62 -9 14 0
-2422 83 0
-2422 9 0
-2422 -35 0
2422 -83 -9 35 0
-2423 56 0
-2423 58 0
-2423 62 0
2423 -56 -58 -62 0
-2424 56 0
-2424 58 0
-2424 83 0
2424 -56 -58 -83 0
-2425 56 0
-2425 58 0
-2425 9 0
2425 -56 -58 -9 0
-2426 56 0
-2426 62 0
-2426 83 0
2426 -56 -62 -83 0
-2427 56 0
-2427 62 0
-2427 9 0
-2427 -13 0
2427 -56 -62 -9 13 0
-2428 56 0
-2428 83 0
-2428 9 0
-2428 -34 0
2428 -56 -83 -9 34 0
-2429 58 0
-2429 62 0
-2429 83 0
2429 -58 -62 -83 0
-2430 58 0
-2430 62 0
-2430 9 0
-2430 -15 0
2430 -58 -62 -9 15 0
-2431 58 0
-2431 83 0
-2431 9 0
-2431 -36 0
2431 -58 -83 -9 36 0
-2432 62 0
-2432 83 0
-2432 9 0
2432 -62 -83 -9 0
-2433 56 0
-2433 58 0
-2433 62 0
-2433 83 0
2433 -56 -58 -62 -83 0
-2434 56 0
-2434 58 0
-2434 62 0
-2434 9 0
2434 -56 -58 -62 -9 0
-2435 56 0
-2435 58 0
-2435 83 0
-2435 9 0
2435 -56 -58 -83 -9 0
-2436 56 0
-2436 62 0
-2436 83 0
-2436 9 0
2436 -56 -62 -83 -9 0
-2437 58 0
-2437 62 0
-2437 83 0
-2437 9 0
2437 -58 -62 -83 -9 0
-2438 56 0
-2438 58 0
-2438 62 0
-2438 83 0
-2438 9 0
2438 -56 -58 -62 -83 -9 0
-57 2413 2414 2415 2416 2417 2418 2419 2420 2421 2422 2423 2424 2425 2426 2427 2428 2429 2430 2431 2432 2433 2434 2435 2436 2437 2438 0
-2439 57 0
-2439 63 0
-2439 -62 0
2439 -57 -63 62 0
-2440 57 0
-2440 84 0
-2440 -83 0
2440 -57 -84 83 0
-2441 57 0
-2441 10 0
-2441 -9 0
2441 -57 -10 9 0
-2442 63 0
-2442 84 0
2442 -63 -84 0
-2443 63 0
-2443 10 0
-2443 -15 0
2443 -63 -10 15 0
-2444 84 0
-2444 10 0
-2444 -36 0
2444 -84 -10 36 0
-2445 57 0
-2445 63 0
-2445 84 0
2445 -57 -63 -84 0
-2446 57 0
-2446 63 0
-2446 10 0
-2446 -14 0
2446 -57 -63 -10 14 0
-2447 57 0
-2447 84 0
-2447 10 0
-2447 -35 0
2447 -57 -84 -10 35 0
-2448 63 0
-2448 84 0
-2448 10 0
2448 -63 -84 -10 0
-2449 57 0
-2449 63 0
-2449 84 0
-2449 10 0
2449 -57 -63 -84 -10 0
-58 2439 2440 2441 2442 2443 2444 2445 2446 2447 2448 2449 0
-2450 56 0
-2450 60 0
2450 -56 -60 0
-2451 56 0
-2451 64 0
-2451 -61 0
2451 -56 -64 61 0
-2452 56 0
-2452 85 0
-2452 -82 0
2452 -56 -85 82 0
-2453 56 0
-2453 11 0
-2453 -8 0
2453 -56 -11 8 0
-2454 60 0
-2454 64 0
-2454 -65 0
2454 -60 -64 65 0
-2455 60 0
-2455 85 0
-2455 -86 0
2455 -60 -85 86 0
-2456 60 0
-2456 11 0
-2456 -12 0
2456 -60 -11 12 0
-2457 64 0
-2457 85 0
2457 -64 -85 0
-2458 64 0
-2458 11 0
-2458 -16 0
2458 -64 -11 16 0
-2459 85 0
-2459 11 0
-2459 -37 0
2459 -85 -11 37 0
-2460 56 0
-2460 60 0
-2460 64 0
2460 -56 -60 -64 0
-2461 56 0
-2461 60 0
-2461 85 0
2461 -56 -60 -85 0
-2462 56 0
-2462 60 0
-2462 11 0
2462 -56 -60 -11 0
-2463 56 0
-2463 64 0
-2463 85 0
2463 -56 -64 -85 0
-2464 56 0
-2464 64 0
-2464 11 0
-2464 -13 0
2464 -56 -64 -11 13 0
-2465 56 0
-2465 85 0
-2465 11 0
-2465 -34 0
2465 -56 -85 -11 34 0
-2466 60 0
-2466 64 0
-2466 85 0
2466 -60 -64 -85 0
-2467 60 0
-2467 64 0
-2467 11 0
-2467 -17 0
2467 -60 -64 -11 17 0
-2468 60 0
-2468 85 0
-2468 11 0
-2468 -38 0
2468 -60 -85 -11 38 0
-2469 64 0
-2469 85 0
-2469 11 0
2469 -64 -85 -11 0
-2470 56 0
-2470 60 0
-2470 64 0
-2470 85 0
2470 -56 -60 -64 -85 0
-2471 56 0
-2471 60 0
-2471 64 0
-2471 11 0
2471 -56 -60 -64 -11 0
-2472 56 0
-2472 60 0
-2472 85 0
-2472 11 0
2472 -56 -60 -85 -11 0
-2473 56 0
-2473 64 0
-2473 85 0
-2473 11 0
2473 -56 -64 -85 -11 0
-2474 60 0
-2474 64 0
-2474 85 0
-2474 11 0
2474 -60 -64 -85 -11 0
-2475 56 0
-2475 60 0
-2475 64 0
-2475 85 0
-2475 11 0
2475 -56 -60 -64 -85 -11 0
-59 2450 2451 2452 2453 2454 2455 2456 2457 2458 2459 2460 2461 2462 2463 2464 2465 2466 2467 2468 2469 2470 2471 2472 2473 2474 2475 0
-2476 59 0
-2476 65 0
-2476 -64 0
2476 -59 -65 64 0
-2477 59 0
-2477 76 0
2477 -59 -76 0
-2478 59 0
-2478 86 0
-2478 -85 0
2478 -59 -86 85 0
-2479 59 0
-2479 12 0
-2479 -11 0
2479 -59 -12 11 0
-2480 65 0
-2480 76 0
-2480 -77 0
2480 -65 -76 77 0
-2481 65 0
-2481 86 0
2481 -65 -86 0
-2482 65 0
-2482 12 0
-2482 -17 0
2482 -65 -12 17 0
-2483 76 0
-2483 86 0
-2483 -87 0
2483 -76 -86 87 0
-2484 76 0
-2484 12 0
-2484 -28 0
2484 -76 -12 28 0
-2485 86 0
-2485 12 0
-2485 -38 0
2485 -86 -12 38 0
-2486 59 0
-2486 65 0
-2486 76 0
2486 -59 -65 -76 0
-2487 59 0
-2487 65 0
-2487 86 0
2487 -59 -65 -86 0
-2488 59 0
-2488 65 0
-2488 12 0
-2488 -16 0
2488 -59 -65 -12 16 0
-2489 59 0
-2489 76 0
-2489 86 0
2489 -59 -76 -86 0
-2490 59 0
-2490 76 0
-2490 12 0
2490 -59 -76 -12 0
-2491 59 0
-2491 86 0
-2491 12 0
-2491 -37 0
2491 -59 -86 -12 37 0
-2492 65 0
-2492 76 0
-2492 86 0
2492 -65 -76 -86 0
-2493 65 0
-2493 76 0
-2493 12 0
-2493 -29 0
2493 -65 -76 -12 29 0
-2494 65 0
-2494 86 0
-2494 12 0
2494 -65 -86 -12 0
-2495 76 0
-2495 86 0
-2495 12 0
-2495 -39 0
2495 -76 -86 -12 39 0
-2496 59 0
-2496 65 0
-2496 76 0
-2496 86 0
2496 -59 -65 -76 -86 0
-2497 59 0
-2497 65 0
-2497 76 0
-2497 12 0
2497 -59 -65 -76 -12 0
-2498 59 0
-2498 65 0
-2498 86 0
-2498 12 0
2498 -59 -65 -86 -12 0
-2499 59 0
-2499 76 0
-2499 86 0
-2499 12 0
2499 -59 -76 -86 -12 0
-2500 65 0
-2500 76 0
-2500 86 0
-2500 12 0
2500 -65 -76 -86 -12 0
-2501 59 0
-2501 65 0
-2501 76 0
-2501 86 0
-2501 12 0
2501 -59 -65 -76 -86 -12 0
-60 2476 2477 2478 2479 2480 2481 2482 2483 2484 2485 2486 2487 2488 2489 2490 2491 2492 2493 2494 2495 2496 2497 2498 2499 2500 2501 0
-2502 62 0
-2502 64 0
2502 -62 -64 0
-2503 62 0
-2503 56 0
-2503 -57 0
2503 -62 -56 57 0
-2504 62 0
-2504 66 0
-2504 -67 0
2504 -62 -66 67 0
-2505 62 0
-2505 13 0
-2505 -14 0
2505 -62 -13 14 0
-2506 64 0
-2506 56 0
-2506 -59 0
2506 -64 -56 59 0
-2507 64 0
-2507 66 0
-2507 -69 0
2507 -64 -66 69 0
-2508 64 0
-2508 13 0
-2508 -16 0
2508 -64 -13 16 0
-2509 56 0
-2509 66 0
2509 -56 -66 0
-2510 56 0
-2510 13 0
-2510 -8 0
2510 -56 -13 8 0
-2511 66 0
-2511 13 0
-2511 -18 0
2511 -66 -13 18 0
-2512 62 0
-2512 64 0
-2512 56 0
2512 -62 -64 -56 0
-2513 62 0
-2513 64 0
-2513 66 0
-2513 -70 0
2513 -62 -64 -66 70 0
-2514 62 0
-2514 64 0
-2514 13 0
2514 -62 -64 -13 0
-2515 62 0
-2515 56 0
-2515 66 0
2515 -62 -56 -66 0
-2516 62 0
-2516 56 0
-2516 13 0
-2516 -9 0
2516 -62 -56 -13 9 0
-2517 62 0
-2517 66 0
-2517 13 0
-2517 -19 0
2517 -62 -66 -13 19 0
-2518 64 0
-2518 56 0
-2518 66 0
2518 -64 -56 -66 0
-2519 64 0
-2519 56 0
-2519 13 0
-2519 -11 0
2519 -64 -56 -13 11 0
-2520 64 0
-2520 66 0
-2520 13 0
-2520 -21 0
2520 -64 -66 -13 21 0
-2521 56 0
-2521 66 0
-2521 13 0
2521 -56 -66 -13 0
-2522 62 0
-2522 64 0
-2522 56 0
-2522 66 0
2522 -62 -64 -56 -66 0
-2523 62 0
-2523 64 0
-2523 56 0
-2523 13 0
2523 -62 -64 -56 -13 0
-2524 62 0
-2524 64 0
-2524 66 0
-2524 13 0
-2524 -22 0
2524 -62 -64 -66 -13 22 0
-2525 62 0
-2525 56 0
-2525 66 0
-2525 13 0
2525 -62 -56 -66 -13 0
-2526 64 0
-2526 56 0
-2526 66 0
-2526 13 0
2526 -64 -56 -66 -13 0
-2527 62 0
-2527 64 0
-2527 56 0
-2527 66 0
-2527 13 0
2527 -62 -64 -56 -66 -13 0
-61 2502 2503 2504 2505 2506 2507 2508 2509 2510 2511 2512 2513 2514 2515 2516 2517 2518 2519 2520 2521 2522 2523 2524 2525 2526 2527 0
-2528 61 0
-2528 63 0
2528 -61 -63 0
-2529 61 0
-2529 57 0
-2529 -56 0
2529 -61 -57 56 0
-2530 61 0
-2530 67 0
-2530 -66 0
2530 -61 -67 66 0
-2531 61 0
-2531 14 0
-2531 -13 0
2531 -61 -14 13 0
-2532 63 0
-2532 57 0
-2532 -58 0
2532 -63 -57 58 0
-2533 63 0
-2533 67 0
-2533 -68 0
2533 -63 -67 68 0
-2534 63 0
-2534 14 0
-2534 -15 0
2534 -63 -14 15 0
-2535 57 0
-2535 67 0
2535 -57 -67 0
-2536 57 0
-2536 14 0
-2536 -9 0
2536 -57 -14 9 0
-2537 67 0
-2537 14 0
-2537 -19 0
2537 -67 -14 19 0
-2538 61 0
-2538 63 0
-2538 57 0
2538 -61 -63 -57 0
-2539 61 0
-2539 63 0
-2539 67 0
2539 -61 -63 -67 0
-2540 61 0
-2540 63 0
-2540 14 0
2540 -61 -63 -14 0
-2541 61 0
-2541 57 0
-2541 67 0
2541 -61 -57 -67 0
-2542 61 0
-2542 57 0
-2542 14 0
-2542 -8 0
2542 -61 -57 -14 8 0
-2543 61 0
-2543 67 0
-2543 14 0
-2543 -18 0
2543 -61 -67 -14 18 0
-2544 63 0
-2544 57 0
-2544 67 0
2544 -63 -57 -67 0
-2545 63 0
-2545 57 0
-2545 14 0
-2545 -10 0
2545 -63 -57 -14 10 0
-2546 63 0
-2546 67 0
-2546 14 0
-2546 -20 0
2546 -63 -67 -14 20 0
-2547 57 0
-2547 67 0
-2547 14 0
2547 -57 -67 -14 0
-2548 61 0
-2548 63 0
-2548 57 0
-2548 67 0
2548 -61 -63 -57 -67 0
-2549 61 0
-2549 63 0
-2549 57 0
-2549 14 0
2549 -61 -63 -57 -14 0
-2550 61 0
-2550 63 0
-2550 67 0
-2550 14 0
2550 -61 -63 -67 -14 0
-2551 61 0
-2551 57 0
-2551 67 0
-2551 14 0
2551 -61 -57 -67 -14 0
-2552 63 0
-2552 57 0
-2552 67 0
-2552 14 0
2552 -63 -57 -67 -14 0
-2553 61 0
-2553 63 0
-2553 57 0
-2553 67 0
-2553 14 0
2553 -61 -63 -57 -67 -14 0
-62 2528 2529 2530 2531 2532 2533 2534 2535 2536 2537 2538 2539 2540 2541 2542 2543 2544 2545 2546 2547 2548 2549 2550 2551 2552 2553 0
-2554 62 0
-2554 58 0
-2554 -57 0
2554 -62 -58 57 0
-2555 62 0
-2555 68 0
-2555 -67 0
2555 -62 -68 67 0
-2556 62 0
-2556 15 0
-2556 -14 0
2556 -62 -15 14 0
-2557 58 0
-2557 68 0
2557 -58 -68 0
-2558 58 0
-2558 15 0
-2558 -10 0
2558 -58 -15 10 0
-2559 68 0
-2559 15 0
-2559 -20 0
2559 -68 -15 20 0
-2560 62 0
-2560 58 0
-2560 68 0
2560 -62 -58 -68 0
-2561 62 0
-2561 58 0
-2561 15 0
-2561 -9 0
2561 -62 -58 -15 9 0
-2562 62 0
-2562 68 0
-2562 15 0
-2562 -19 0
2562 -62 -68 -15 19 0
-2563 58 0
-2563 68 0
-2563 15 0
2563 -58 -68 -15 0
-2564 62 0
-2564 58 0
-2564 68 0
-2564 15 0
2564 -62 -58 -68 -15 0
-63 2554 2555 2556 2557 2558 2559 2560 2561 2562 2563 2564 0
-2565 61 0
-2565 65 0
2565 -61 -65 0
-2566 61 0
-2566 59 0
-2566 -56 0
2566 -61 -59 56 0
-2567 61 0
-2567 69 0
-2567 -66 0
2567 -61 -69 66 0
-2568 61 0
-2568 16 0
-2568 -13 0
2568 -61 -16 13 0
-2569 65 0
-2569 59 0
-2569 -60 0
2569 -65 -59 60 0
-2570 65 0
-2570 69 0
-2570 -73 0
2570 -65 -69 73 0
-2571 65 0
-2571 16 0
-2571 -17 0
2571 -65 -16 17 0
-2572 59 0
-2572 69 0
2572 -59 -69 0
-2573 59 0
-2573 16 0
-2573 -11 0
2573 -59 -16 11 0
-2574 69 0
-2574 16 0
-2574 -21 0
2574 -69 -16 21 0
-2575 61 0
-2575 65 0
-2575 59 0
2575 -61 -65 -59 0
-2576 61 0
-2576 65 0
-2576 69 0
2576 -61 -65 -69 0
-2577 61 0
-2577 65 0
-2577 16 0
2577 -61 -65 -16 0
-2578 61 0
-2578 59 0
-2578 69 0
2578 -61 -59 -69 0
-2579 61 0
-2579 59 0
-2579 16 0
-2579 -8 0
2579 -61 -59 -16 8 0
-2580 61 0
-2580 69 0
-2580 16 0
-2580 -18 0
2580 -61 -69 -16 18 0
-2581 65 0
-2581 59 0
-2581 69 0
2581 -65 -59 -69 0
-2582 65 0
-2582 59 0
-2582 16 0
-2582 -12 0
2582 -65 -59 -16 12 0
-2583 65 0
-2583 69 0
-2583 16 0
-2583 -25 0
2583 -65 -69 -16 25 0
-2584 59 0
-2584 69 0
-2584 16 0
2584 -59 -69 -16 0
-2585 61 0
-2585 65 0
-2585 59 0
-2585 69 0
2585 -61 -65 -59 -69 0
-2586 61 0
-2586 65 0
-2586 59 0
-2586 16 0
2586 -61 -65 -59 -16 0
-2587 61 0
-2587 65 0
-2587 69 0
-2587 16 0
2587 -61 -65 -69 -16 0
-2588 61 0
-2588 59 0
-2588 69 0
-2588 16 0
2588 -61 -59 -69 -16 0
-2589 65 0
-2589 59 0
-2589 69 0
-2589 16 0
2589 -65 -59 -69 -16 0
-2590 61 0
-2590 65 0
-2590 59 0
-2590 69 0
-2590 16 0
2590 -61 -65 -59 -69 -16 0
-64 2565 2566 2567 2568 2569 2570 2571 2572 2573 2574 2575 2576 2577 2578 2579 2580 2581 2582 2583 2584 2585 2586 2587 2588 2589 2590 0
-2591 64 0
-2591 60 0
-2591 -59 0
2591 -64 -60 59 0
-2592 64 0
-2592 73 0
-2592 -69 0
2592 -64 -73 69 0
-2593 64 0
-2593 77 0
2593 -64 -77 0
-2594 64 0
-2594 17 0
-2594 -16 0
2594 -64 -17 16 0
-2595 60 0
-2595 73 0
2595 -60 -73 0
-2596 60 0
-2596 77 0
-2596 -76 0
2596 -60 -77 76 0
-2597 60 0
-2597 17 0
-2597 -12 0
2597 -60 -17 12 0
-2598 73 0
-2598 77 0
-2598 -78 0
2598 -73 -77 78 0
-2599 73 0
-2599 17 0
-2599 -25 0
2599 -73 -17 25 0
-2600 77 0
-2600 17 0
-2600 -29 0
2600 -77 -17 29 0
-2601 64 0
-2601 60 0
-2601 73 0
2601 -64 -60 -73 0
-2602 64 0
-2602 60 0
-2602 77 0
2602 -64 -60 -77 0
-2603 64 0
-2603 60 0
-2603 17 0
-2603 -11 0
2603 -64 -60 -17 11 0
-2604 64 0
-2604 73 0
-2604 77 0
2604 -64 -73 -77 0
-2605 64 0
-2605 73 0
-2605 17 0
-2605 -21 0
2605 -64 -73 -17 21 0
-2606 64 0
-2606 77 0
-2606 17 0
2606 -64 -77 -17 0
-2607 60 0
-2607 73 0
-2607 77 0
2607 -60 -73 -77 0
-2608 60 0
-2608 73 0
-2608 17 0
2608 -60 -73 -17 0
-2609 60 0
-2609 77 0
-2609 17 0
-2609 -28 0
2609 -60 -77 -17 28 0
-2610 73 0
-2610 77 0
-2610 17 0
-2610 -30 0
2610 -73 -77 -17 30 0
-2611 64 0
-2611 60 0
-2611 73 0
-2611 77 0
2611 -64 -60 -73 -77 0
-2612 64 0
-2612 60 0
-2612 73 0
-2612 17 0
2612 -64 -60 -73 -17 0
-2613 64 0
-2613 60 0
-2613 77 0
-2613 17 0
2613 -64 -60 -77 -17 0
-2614 64 0
-2614 73 0
-2614 77 0
-2614 17 0
2614 -64 -73 -77 -17 0
-2615 60 0
-2615 73 0
-2615 77 0
-2615 17 0
2615 -60 -73 -77 -17 0
-2616 64 0
-2616 60 0
-2616 73 0
-2616 77 0
-2616 17 0
2616 -64 -60 -73 -77 -17 0
-65 2591 2592 2593 2594 2595 2596 2597 2598 2599 2600 2601 2602 2603 2604 2605 2606 2607 2608 2609 2610 2611 2612 2613 2614 2615 2616 0
-2617 67 0
-2617 69 0
-2617 -70 0
2617 -67 -69 70 0
-2618 67 0
-2618 61 0
-2618 -62 0
2618 -67 -61 62 0
-2619 67 0
-2619 18 0
-2619 -19 0
2619 -67 -18 19 0
-2620 69 0
-2620 61 0
-2620 -64 0
2620 -69 -61 64 0
-2621 69 0
-2621 18 0
-2621 -21 0
2621 -69 -18 21 0
-2622 61 0
-2622 18 0
-2622 -13 0
2622 -61 -18 13 0
-2623 67 0
-2623 69 0
-2623 61 0
2623 -67 -69 -61 0
-2624 67 0
-2624 69 0
-2624 18 0
-2624 -22 0
2624 -67 -69 -18 22 0
-2625 67 0
-2625 61 0
-2625 18 0
-2625 -14 0
2625 -67 -61 -18 14 0
-2626 69 0
-2626 61 0
-2626 18 0
-2626 -16 0
2626 -69 -61 -18 16 0
-2627 67 0
-2627 69 0
-2627 61 0
-2627 18 0
2627 -67 -69 -61 -18 0
-66 2617 2618 2619 2620 2621 2622 2623 2624 2625 2626 2627 0
-2628 66 0
-2628 68 0
2628 -66 -68 0
-2629 66 0
-2629 70 0
-2629 -69 0
2629 -66 -70 69 0
-2630 66 0
-2630 62 0
-2630 -61 0
2630 -66 -62 61 0
-2631 66 0
-2631 19 0
-2631 -18 0
2631 -66 -19 18 0
-2632 68 0
-2632 70 0
-2632 -71 0
2632 -68 -70 71 0
-2633 68 0
-2633 62 0
-2633 -63 0
2633 -68 -62 63 0
-2634 68 0
-2634 19 0
-2634 -20 0
2634 -68 -19 20 0
-2635 70 0
-2635 62 0
2635 -70 -62 0
-2636 70 0
-2636 19 0
-2636 -22 0
2636 -70 -19 22 0
-2637 62 0
-2637 19 0
-2637 -14 0
2637 -62 -19 14 0
-2638 66 0
-2638 68 0
-2638 70 0
2638 -66 -68 -70 0
-2639 66 0
-2639 68 0
-2639 62 0
2639 -66 -68 -62 0
-2640 66 0
-2640 68 0
-2640 19 0
2640 -66 -68 -19 0
-2641 66 0
-2641 70 0
-2641 62 0
-2641 -64 0
2641 -66 -70 -62 64 0
-2642 66 0
-2642 70 0
-2642 19 0
-2642 -21 0
2642 -66 -70 -19 21 0
-2643 66 0
-2643 62 0
-2643 19 0
-2643 -13 0
2643 -66 -62 -19 13 0
-2644 68 0
-2644 70 0
-2644 62 0
2644 -68 -70 -62 0
-2645 68 0
-2645 70 0
-2645 19 0
-2645 -23 0
2645 -68 -70 -19 23 0
-2646 68 0
-2646 62 0
-2646 19 0
-2646 -15 0
2646 -68 -62 -19 15 0
-2647 70 0
-2647 62 0
-2647 19 0
2647 -70 -62 -19 0
-2648 66 0
-2648 68 0
-2648 70 0
-2648 62 0
2648 -66 -68 -70 -62 0
-2649 66 0
-2649 68 0
-2649 70 0
-2649 19 0
2649 -66 -68 -70 -19 0
-2650 66 0
-2650 68 0
-2650 62 0
-2650 19 0
2650 -66 -68 -62 -19 0
-2651 66 0
-2651 70 0
-2651 62 0
-2651 19 0
-2651 -16 0
2651 -66 -70 -62 -19 16 0
-2652 68 0
-2652 70 0
-2652 62 0
-2652 19 0
2652 -68 -70 -62 -19 0
-2653 66 0
-2653 68 0
-2653 70 0
-2653 62 0
-2653 19 0
2653 -66 -68 -70 -62 -19 0
-67 2628 2629 2630 2631 2632 2633 2634 2635 2636 2637 2638 2639 2640 2641 2642 2643 2644 2645 2646 2647 2648 2649 2650 2651 2652 2653 0
-2654 67 0
-2654 71 0
-2654 -70 0
2654 -67 -71 70 0
-2655 67 0
-2655 72 0
2655 -67 -72 0
-2656 67 0
-2656 63 0
-2656 -62 0
2656 -67 -63 62 0
-2657 67 0
-2657 20 0
-2657 -19 0
2657 -67 -20 19 0
-2658 71 0
-2658 72 0
-2658 -75 0
2658 -71 -72 75 0
-2659 71 0
-2659 63 0
2659 -71 -63 0
-2660 71 0
-2660 20 0
-2660 -23 0
2660 -71 -20 23 0
-2661 72 0
-2661 63 0
2661 -72 -63 0
-2662 72 0
-2662 20 0
-2662 -24 0
2662 -72 -20 24 0
-2663 63 0
-2663 20 0
-2663 -15 0
2663 -63 -20 15 0
-2664 67 0
-2664 71 0
-2664 72 0
-2664 -74 0
2664 -67 -71 -72 74 0
-2665 67 0
-2665 71 0
-2665 63 0
2665 -67 -71 -63 0
-2666 67 0
-2666 71 0
-2666 20 0
-2666 -22 0
2666 -67 -71 -20 22 0
-2667 67 0
-2667 72 0
-2667 63 0
2667 -67 -72 -63 0
-2668 67 0
-2668 72 0
-2668 20 0
2668 -67 -72 -20 0
-2669 67 0
-2669 63 0
-2669 20 0
-2669 -14 0
2669 -67 -63 -20 14 0
-2670 71 0
-2670 72 0
-2670 63 0
2670 -71 -72 -63 0
-2671 71 0
-2671 72 0
-2671 20 0
-2671 -27 0
2671 -71 -72 -20 27 0
-2672 71 0
-2672 63 0
-2672 20 0
2672 -71 -63 -20 0
-2673 72 0
-2673 63 0
-2673 20 0
2673 -72 -63 -20 0
-2674 67 0
-2674 71 0
-2674 72 0
-2674 63 0
2674 -67 -71 -72 -63 0
-2675 67 0
-2675 71 0
-2675 72 0
-2675 20 0
-2675 -26 0
2675 -67 -71 -72 -20 26 0
-2676 67 0
-2676 71 0
-2676 63 0
-2676 20 0
2676 -67 -71 -63 -20 0
-2677 67 0
-2677 72 0
-2677 63 0
-2677 20 0
2677 -67 -72 -63 -20 0
-2678 71 0
-2678 72 0
-2678 63 0
-2678 20 0
2678 -71 -72 -63 -20 0
-2679 67 0
-2679 71 0
-2679 72 0
-2679 63 0
-2679 20 0
2679 -67 -71 -72 -63 -20 0
-68 2654 2655 2656 2657 2658 2659 2660 2661 2662 2663 2664 2665 2666 2667 2668 2669 2670 2671 2672 2673 2674 2675 2676 2677 2678 2679 0
-2680 70 0
-2680 66 0
-2680 -67 0
2680 -70 -66 67 0
-2681 70 0
-2681 73 0
-2681 -74 0
2681 -70 -73 74 0
-2682 70 0
-2682 64 0
2682 -70 -64 0
-2683 70 0
-2683 21 0
-2683 -22 0
2683 -70 -21 22 0
-2684 66 0
-2684 73 0
2684 -66 -73 0
-2685 66 0
-2685 64 0
-2685 -61 0
2685 -66 -64 61 0
-2686 66 0
-2686 21 0
-2686 -18 0
2686 -66 -21 18 0
-2687 73 0
-2687 64 0
-2687 -65 0
2687 -73 -64 65 0
-2688 73 0
-2688 21 0
-2688 -25 0
2688 -73 -21 25 0
-2689 64 0
-2689 21 0
-2689 -16 0
2689 -64 -21 16 0
-2690 70 0
-2690 66 0
-2690 73 0
2690 -70 -66 -73 0
-2691 70 0
-2691 66 0
-2691 64 0
-2691 -62 0
2691 -70 -66 -64 62 0
-2692 70 0
-2692 66 0
-2692 21 0
-2692 -19 0
2692 -70 -66 -21 19 0
-2693 70 0
-2693 73 0
-2693 64 0
2693 -70 -73 -64 0
-2694 70 0
-2694 73 0
-2694 21 0
-2694 -26 0
2694 -70 -73 -21 26 0
-2695 70 0
-2695 64 0
-2695 21 0
2695 -70 -64 -21 0
-2696 66 0
-2696 73 0
-2696 64 0
2696 -66 -73 -64 0
-2697 66 0
-2697 73 0
-2697 21 0
2697 -66 -73 -21 0
-2698 66 0
-2698 64 0
-2698 21 0
-2698 -13 0
2698 -66 -64 -21 13 0
-2699 73 0
-2699 64 0
-2699 21 0
-2699 -17 0
2699 -73 -64 -21 17 0
-2700 70 0
-2700 66 0
-2700 73 0
-2700 64 0
2700 -70 -66 -73 -64 0
-2701 70 0
-2701 66 0
-2701 73 0
-2701 21 0
2701 -70 -66 -73 -21 0
-2702 70 0
-2702 66 0
-2702 64 0
-2702 21 0
-2702 -14 0
2702 -70 -66 -64 -21 14 0
-2703 70 0
-2703 73 0
-2703 64 0
-2703 21 0
2703 -70 -73 -64 -21 0
-2704 66 0
-2704 73 0
-2704 64 0
-2704 21 0
2704 -66 -73 -64 -21 0
-2705 70 0
-2705 66 0
-2705 73 0
-2705 64 0
-2705 21 0
2705 -70 -66 -73 -64 -21 0
-69 2680 2681 2682 2683 2684 2685 2686 2687 2688 2689 2690 2691 2692 2693 2694 2695 2696 2697 2698 2699 2700 2701 2702 2703 2704 2705 0
-2706 69 0
-2706 71 0
2706 -69 -71 0
-2707 69 0
-2707 67 0
-2707 -66 0
2707 -69 -67 66 0
-2708 69 0
-2708 74 0
-2708 -73 0
2708 -69 -74 73 0
-2709 69 0
-2709 22 0
-2709 -21 0
2709 -69 -22 21 0
-2710 71 0
-2710 67 0
-2710 -68 0
2710 -71 -67 68 0
-2711 71 0
-2711 74 0
-2711 -75 0
2711 -71 -74 75 0
-2712 71 0
-2712 22 0
-2712 -23 0
2712 -71 -22 23 0
-2713 67 0
-2713 74 0
2713 -67 -74 0
-2714 67 0
-2714 22 0
-2714 -19 0
2714 -67 -22 19 0
-2715 74 0
-2715 22 0
-2715 -26 0
2715 -74 -22 26 0
-2716 69 0
-2716 71 0
-2716 67 0
2716 -69 -71 -67 0
-2717 69 0
-2717 71 0
-2717 74 0
2717 -69 -71 -74 0
-2718 69 0
-2718 71 0
-2718 22 0
2718 -69 -71 -22 0
-2719 69 0
-2719 67 0
-2719 74 0
2719 -69 -67 -74 0
-2720 69 0
-2720 67 0
-2720 22 0
-2720 -18 0
2720 -69 -67 -22 18 0
-2721 69 0
-2721 74 0
-2721 22 0
-2721 -25 0
2721 -69 -74 -22 25 0
-2722 71 0
-2722 67 0
-2722 74 0
-2722 -72 0
2722 -71 -67 -74 72 0
-2723 71 0
-2723 67 0
-2723 22 0
-2723 -20 0
2723 -71 -67 -22 20 0
-2724 71 0
-2724 74 0
-2724 22 0
-2724 -27 0
2724 -71 -74 -22 27 0
-2725 67 0
-2725 74 0
-2725 22 0
2725 -67 -74 -22 0
-2726 69 0
-2726 71 0
-2726 67 0
-2726 74 0
2726 -69 -71 -67 -74 0
-2727 69 0
-2727 71 0
-2727 67 0
-2727 22 0
2727 -69 -71 -67 -22 0
-2728 69 0
-2728 71 0
-2728 74 0
-2728 22 0
2728 -69 -71 -74 -22 0
-2729 69 0
-2729 67 0
-2729 74 0
-2729 22 0
2729 -69 -67 -74 -22 0
-2730 71 0
-2730 67 0
-2730 74 0
-2730 22 0
-2730 -24 0
2730 -71 -67 -74 -22 24 0
-2731 69 0
-2731 71 0
-2731 67 0
-2731 74 0
-2731 22 0
2731 -69 -71 -67 -74 -22 0
-70 2706 2707 2708 2709 2710 2711 2712 2713 2714 2715 2716 2717 2718 2719 2720 2721 2722 2723 2724 2725 2726 2727 2728 2729 2730 2731 0
-2732 70 0
-2732 68 0
-2732 -67 0
2732 -70 -68 67 0
-2733 70 0
-2733 75 0
-2733 -74 0
2733 -70 -75 74 0
-2734 70 0
-2734 23 0
-2734 -22 0
2734 -70 -23 22 0
-2735 68 0
-2735 75 0
-2735 -72 0
2735 -68 -75 72 0
-2736 68 0
-2736 23 0
-2736 -20 0
2736 -68 -23 20 0
-2737 75 0
-2737 23 0
-2737 -27 0
2737 -75 -23 27 0
-2738 70 0
-2738 68 0
-2738 75 0
2738 -70 -68 -75 0
-2739 70 0
-2739 68 0
-2739 23 0
-2739 -19 0
2739 -70 -68 -23 19 0
-2740 70 0
-2740 75 0
-2740 23 0
-2740 -26 0
2740 -70 -75 -23 26 0
-2741 68 0
-2741 75 0
-2741 23 0
-2741 -24 0
2741 -68 -75 -23 24 0
-2742 70 0
-2742 68 0
-2742 75 0
-2742 23 0
2742 -70 -68 -75 -23 0
-71 2732 2733 2734 2735 2736 2737 2738 2739 2740 2741 2742 0
-2743 75 0
-2743 68 0
-2743 -71 0
2743 -75 -68 71 0
-2744 75 0
-2744 24 0
-2744 -27 0
2744 -75 -24 27 0
-2745 68 0
-2745 24 0
-2745 -20 0
2745 -68 -24 20 0
-2746 75 0
-2746 68 0
-2746 24 0
-2746 -23 0
2746 -75 -68 -24 23 0
-72 2743 2744 2745 2746 0
-2747 74 0
-2747 69 0
-2747 -70 0
2747 -74 -69 70 0
-2748 74 0
-2748 65 0
2748 -74 -65 0
-2749 74 0
-2749 78 0
-2749 -79 0
2749 -74 -78 79 0
-2750 74 0
-2750 25 0
-2750 -26 0
2750 -74 -25 26 0
-2751 69 0
-2751 65 0
-2751 -64 0
2751 -69 -65 64 0
-2752 69 0
-2752 78 0
2752 -69 -78 0
-2753 69 0
-2753 25 0
-2753 -21 0
2753 -69 -25 21 0
-2754 65 0
-2754 78 0
-2754 -77 0
2754 -65 -78 77 0
-2755 65 0
-2755 25 0
-2755 -17 0
2755 -65 -25 17 0
-2756 78 0
-2756 25 0
-2756 -30 0
2756 -78 -25 30 0
-2757 74 0
-2757 69 0
-2757 65 0
2757 -74 -69 -65 0
-2758 74 0
-2758 69 0
-2758 78 0
2758 -74 -69 -78 0
-2759 74 0
-2759 69 0
-2759 25 0
-2759 -22 0
2759 -74 -69 -25 22 0
-2760 74 0
-2760 65 0
-2760 78 0
2760 -74 -65 -78 0
-2761 74 0
-2761 65 0
-2761 25 0
2761 -74 -65 -25 0
-2762 74 0
-2762 78 0
-2762 25 0
-2762 -31 0
2762 -74 -78 -25 31 0
-2763 69 0
-2763 65 0
-2763 78 0
2763 -69 -65 -78 0
-2764 69 0
-2764 65 0
-2764 25 0
-2764 -16 0
2764 -69 -65 -25 16 0
-2765 69 0
-2765 78 0
-2765 25 0
2765 -69 -78 -25 0
-2766 65 0
-2766 78 0
-2766 25 0
-2766 -29 0
2766 -65 -78 -25 29 0
-2767 74 0
-2767 69 0
-2767 65 0
-2767 78 0
2767 -74 -69 -65 -78 0
-2768 74 0
-2768 69 0
-2768 65 0
-2768 25 0
2768 -74 -69 -65 -25 0
-2769 74 0
-2769 69 0
-2769 78 0
-2769 25 0
2769 -74 -69 -78 -25 0
-2770 74 0
-2770 65 0
-2770 78 0
-2770 25 0
2770 -74 -65 -78 -25 0
-2771 69 0
-2771 65 0
-2771 78 0
-2771 25 0
2771 -69 -65 -78 -25 0
-2772 74 0
-2772 69 0
-2772 65 0
-2772 78 0
-2772 25 0
2772 -74 -69 -65 -78 -25 0
-73 2747 2748 2749 2750 2751 2752 2753 2754 2755 2756 2757 2758 2759 2760 2761 2762 2763 2764 2765 2766 2767 2768 2769 2770 2771 2772 0
-2773 73 0
-2773 75 0
2773 -73 -75 0
-2774 73 0
-2774 70 0
-2774 -69 0
2774 -73 -70 69 0
-2775 73 0
-2775 79 0
-2775 -78 0
2775 -73 -79 78 0
-2776 73 0
-2776 26 0
-2776 -25 0
2776 -73 -26 25 0
-2777 75 0
-2777 70 0
-2777 -71 0
2777 -75 -70 71 0
-2778 75 0
-2778 79 0
-2778 -80 0
2778 -75 -79 80 0
-2779 75 0
-2779 26 0
-2779 -27 0
2779 -75 -26 27 0
-2780 70 0
-2780 79 0
2780 -70 -79 0
-2781 70 0
-2781 26 0
-2781 -22 0
2781 -70 -26 22 0
-2782 79 0
-2782 26 0
-2782 -31 0
2782 -79 -26 31 0
-2783 73 0
-2783 75 0
-2783 70 0
2783 -73 -75 -70 0
-2784 73 0
-2784 75 0
-2784 79 0
2784 -73 -75 -79 0
-2785 73 0
-2785 75 0
-2785 26 0
2785 -73 -75 -26 0
-2786 73 0
-2786 70 0
-2786 79 0
2786 -73 -70 -79 0
-2787 73 0
-2787 70 0
-2787 26 0
-2787 -21 0
2787 -73 -70 -26 21 0
-2788 73 0
-2788 79 0
-2788 26 0
-2788 -30 0
2788 -73 -79 -26 30 0
-2789 75 0
-2789 70 0
-2789 79 0
2789 -75 -70 -79 0
-2790 75 0
-2790 70 0
-2790 26 0
-2790 -23 0
2790 -75 -70 -26 23 0
-2791 75 0
-2791 79 0
-2791 26 0
-2791 -32 0
2791 -75 -79 -26 32 0
-2792 70 0
-2792 79 0
-2792 26 0
2792 -70 -79 -26 0
-2793 73 0
-2793 75 0
-2793 70 0
-2793 79 0
2793 -73 -75 -70 -79 0
-2794 73 0
-2794 75 0
-2794 70 0
-2794 26 0
2794 -73 -75 -70 -26 0
-2795 73 0
-2795 75 0
-2795 79 0
-2795 26 0
2795 -73 -75 -79 -26 0
-2796 73 0
-2796 70 0
-2796 79 0
-2796 26 0
2796 -73 -70 -79 -26 0
-2797 75 0
-2797 70 0
-2797 79 0
-2797 26 0
2797 -75 -70 -79 -26 0
-2798 73 0
-2798 75 0
-2798 70 0
-2798 79 0
-2798 26 0
2798 -73 -75 -70 -79 -26 0
-74 2773 2774 2775 2776 2777 2778 2779 2780 2781 2782 2783 2784 2785 2786 2787 2788 2789 2790 2791 2792 2793 2794 2795 2796 2797 2798 0
-2799 74 0
-2799 72 0
2799 -74 -72 0
-2800 74 0
-2800 71 0
-2800 -70 0
2800 -74 -71 70 0
-2801 74 0
-2801 80 0
-2801 -79 0
2801 -74 -80 79 0
-2802 74 0
-2802 49 0
2802 -74 -49 0
-2803 74 0
-2803 27 0
-2803 -26 0
2803 -74 -27 26 0
-2804 72 0
-2804 71 0
-2804 -68 0
2804 -72 -71 68 0
-2805 72 0
-2805 80 0
2805 -72 -80 0
-2806 72 0
-2806 49 0
2806 -72 -49 0
-2807 72 0
-2807 27 0
-2807 -24 0
2807 -72 -27 24 0
-2808 71 0
-2808 80 0
2808 -71 -80 0
-2809 71 0
-2809 49 0
2809 -71 -49 0
-2810 71 0
-2810 27 0
-2810 -23 0
2810 -71 -27 23 0
-2811 80 0
-2811 49 0
-2811 -55 0
2811 -80 -49 55 0
-2812 80 0
-2812 27 0
-2812 -32 0
2812 -80 -27 32 0
-2813 49 0
-2813 27 0
-2813 -1 0
2813 -49 -27 1 0
-2814 74 0
-2814 72 0
-2814 71 0
-2814 -67 0
2814 -74 -72 -71 67 0
-2815 74 0
-2815 72 0
-2815 80 0
2815 -74 -72 -80 0
-2816 74 0
-2816 72 0
-2816 49 0
2816 -74 -72 -49 0
-2817 74 0
-2817 72 0
-2817 27 0
2817 -74 -72 -27 0
-2818 74 0
-2818 71 0
-2818 80 0
2818 -74 -71 -80 0
-2819 74 0
-2819 71 0
-2819 49 0
2819 -74 -71 -49 0
-2820 74 0
-2820 71 0
-2820 27 0
-2820 -22 0
2820 -74 -71 -27 22 0
-2821 74 0
-2821 80 0
-2821 49 0
-2821 -54 0
2821 -74 -80 -49 54 0
-2822 74 0
-2822 80 0
-2822 27 0
-2822 -31 0
2822 -74 -80 -27 31 0
-2823 74 0
-2823 49 0
-2823 27 0
2823 -74 -49 -27 0
-2824 72 0
-2824 71 0
-2824 80 0
2824 -72 -71 -80 0
-2825 72 0
-2825 71 0
-2825 49 0
2825 -72 -71 -49 0
-2826 72 0
-2826 71 0
-2826 27 0
-2826 -20 0
2826 -72 -71 -27 20 0
-2827 72 0
-2827 80 0
-2827 49 0
2827 -72 -80 -49 0
-2828 72 0
-2828 80 0
-2828 27 0
2828 -72 -80 -27 0
-2829 72 0
-2829 49 0
-2829 27 0
2829 -72 -49 -27 0
-2830 71 0
-2830 80 0
-2830 49 0
2830 -71 -80 -49 0
-2831 71 0
-2831 80 0
-2831 27 0
2831 -71 -80 -27 0
-2832 71 0
-2832 49 0
-2832 27 0
2832 -71 -49 -27 0
-2833 80 0
-2833 49 0
-2833 27 0
-2833 -7 0
2833 -80 -49 -27 7 0
-2834 74 0
-2834 72 0
-2834 71 0
-2834 80 0
2834 -74 -72 -71 -80 0
-2835 74 0
-2835 72 0
-2835 71 0
-2835 49 0
2835 -74 -72 -71 -49 0
-2836 74 0
-2836 72 0
-2836 71 0
-2836 27 0
-2836 -19 0
2836 -74 -72 -71 -27 19 0
-2837 74 0
-2837 72 0
-2837 80 0
-2837 49 0
2837 -74 -72 -80 -49 0
-2838 74 0
-2838 72 0
-2838 80 0
-2838 27 0
2838 -74 -72 -80 -27 0
-2839 74 0
-2839 72 0
-2839 49 0
-2839 27 0
2839 -74 -72 -49 -27 0
-2840 74 0
-2840 71 0
-2840 80 0
-2840 49 0
2840 -74 -71 -80 -49 0
-2841 74 0
-2841 71 0
-2841 80 0
-2841 27 0
2841 -74 -71 -80 -27 0
-2842 74 0
-2842 71 0
-2842 49 0
-2842 27 0
2842 -74 -71 -49 -27 0
-2843 74 0
-2843 80 0
-2843 49 0
-2843 27 0
-2843 -6 0
2843 -74 -80 -49 -27 6 0
-2844 72 0
-2844 71 0
-2844 80 0
-2844 49 0
2844 -72 -71 -80 -49 0
-2845 72 0
-2845 71 0
-2845 80 0
-2845 27 0
2845 -72 -71 -80 -27 0
-2846 72 0
-2846 71 0
-2846 49 0
-2846 27 0
2846 -72 -71 -49 -27 0
-2847 72 0
-2847 80 0
-2847 49 0
-2847 27 0
2847 -72 -80 -49 -27 0
-2848 71 0
-2848 80 0
-2848 49 0
-2848 27 0
2848 -71 -80 -49 -27 0
-2849 74 0
-2849 72 0
-2849 71 0
-2849 80 0
-2849 49 0
2849 -74 -72 -71 -80 -49 0
-2850 74 0
-2850 72 0
-2850 71 0
-2850 80 0
-2850 27 0
2850 -74 -72 -71 -80 -27 0
-2851 74 0
-2851 72 0
-2851 71 0
-2851 49 0
-2851 27 0
2851 -74 -72 -71 -49 -27 0
-2852 74 0
-2852 72 0
-2852 80 0
-2852 49 0
-2852 27 0
2852 -74 -72 -80 -49 -27 0
-2853 74 0
-2853 71 0
-2853 80 0
-2853 49 0
-2853 27 0
2853 -74 -71 -80 -49 -27 0
-2854 72 0
-2854 71 0
-2854 80 0
-2854 49 0
-2854 27 0
2854 -72 -71 -80 -49 -27 0
-2855 74 0
-2855 72 0
-2855 71 0
-2855 80 0
-2855 49 0
-2855 27 0
2855 -74 -72 -71 -80 -49 -27 0
-75 2799 2800 2801 2802 2803 2804 2805 2806 2807 2808 2809 2810 2811 2812 2813 2814 2815 2816 2817 2818 2819 2820 2821 2822 2823 2824 2825 2826 2827 2828 2829 2830 2831 2832 2833 2834 2835 2836 2837 2838 2839 2840 2841 2842 2843 2844 2845 2846 2847 2848 2849 2850 2851 2852 2853 2854 2855 0
-2856 77 0
-2856 60 0
-2856 -65 0
2856 -77 -60 65 0
-2857 77 0
-2857 50 0
-2857 -51 0
2857 -77 -50 51 0
-2858 77 0
-2858 87 0
2858 -77 -87 0
-2859 77 0
-2859 28 0
-2859 -29 0
2859 -77 -28 29 0
-2860 60 0
-2860 50 0
2860 -60 -50 0
-2861 60 0
-2861 87 0
-2861 -86 0
2861 -60 -87 86 0
-2862 60 0
-2862 28 0
-2862 -12 0
2862 -60 -28 12 0
-2863 50 0
-2863 87 0
-2863 -81 0
2863 -50 -87 81 0
-2864 50 0
-2864 28 0
-2864 -2 0
2864 -50 -28 2 0
-2865 87 0
-2865 28 0
-2865 -39 0
2865 -87 -28 39 0
-2866 77 0
-2866 60 0
-2866 50 0
2866 -77 -60 -50 0
-2867 77 0
-2867 60 0
-2867 87 0
2867 -77 -60 -87 0
-2868 77 0
-2868 60 0
-2868 28 0
-2868 -17 0
2868 -77 -60 -28 17 0
-2869 77 0
-2869 50 0
-2869 87 0
2869 -77 -50 -87 0
-2870 77 0
-2870 50 0
-2870 28 0
-2870 -3 0
2870 -77 -50 -28 3 0
-2871 77 0
-2871 87 0
-2871 28 0
2871 -77 -87 -28 0
-2872 60 0
-2872 50 0
-2872 87 0
2872 -60 -50 -87 0
-2873 60 0
-2873 50 0
-2873 28 0
2873 -60 -50 -28 0
-2874 60 0
-2874 87 0
-2874 28 0
-2874 -38 0
2874 -60 -87 -28 38 0
-2875 50 0
-2875 87 0
-2875 28 0
-2875 -33 0
2875 -50 -87 -28 33 0
-2876 77 0
-2876 60 0
-2876 50 0
-2876 87 0
2876 -77 -60 -50 -87 0
-2877 77 0
-2877 60 0
-2877 50 0
-2877 28 0
2877 -77 -60 -50 -28 0
-2878 77 0
-2878 60 0
-2878 87 0
-2878 28 0
2878 -77 -60 -87 -28 0
-2879 77 0
-2879 50 0
-2879 87 0
-2879 28 0
2879 -77 -50 -87 -28 0
-2880 60 0
-2880 50 0
-2880 87 0
-2880 28 0
2880 -60 -50 -87 -28 0
-2881 77 0
-2881 60 0
-2881 50 0
-2881 87 0
-2881 28 0
2881 -77 -60 -50 -87 -28 0
-76 2856 2857 2858 2859 2860 2861 2862 2863 2864 2865 2866 2867 2868 2869 2870 2871 2872 2873 2874 2875 2876 2877 2878 2879 2880 2881 0
-2882 76 0
-2882 78 0
2882 -76 -78 0
-2883 76 0
-2883 65 0
-2883 -60 0
2883 -76 -65 60 0
-2884 76 0
-2884 51 0
-2884 -50 0
2884 -76 -51 50 0
-2885 76 0
-2885 29 0
-2885 -28 0
2885 -76 -29 28 0
-2886 78 0
-2886 65 0
-2886 -73 0
2886 -78 -65 73 0
-2887 78 0
-2887 51 0
-2887 -53 0
2887 -78 -51 53 0
-2888 78 0
-2888 29 0
-2888 -30 0
2888 -78 -29 30 0
-2889 65 0
-2889 51 0
2889 -65 -51 0
-2890 65 0
-2890 29 0
-2890 -17 0
2890 -65 -29 17 0
-2891 51 0
-2891 29 0
-2891 -3 0
2891 -51 -29 3 0
-2892 76 0
-2892 78 0
-2892 65 0
2892 -76 -78 -65 0
-2893 76 0
-2893 78 0
-2893 51 0
-2893 -52 0
2893 -76 -78 -51 52 0
-2894 76 0
-2894 78 0
-2894 29 0
2894 -76 -78 -29 0
-2895 76 0
-2895 65 0
-2895 51 0
2895 -76 -65 -51 0
-2896 76 0
-2896 65 0
-2896 29 0
-2896 -12 0
2896 -76 -65 -29 12 0
-2897 76 0
-2897 51 0
-2897 29 0
-2897 -2 0
2897 -76 -51 -29 2 0
-2898 78 0
-2898 65 0
-2898 51 0
2898 -78 -65 -51 0
-2899 78 0
-2899 65 0
-2899 29 0
-2899 -25 0
2899 -78 -65 -29 25 0
-2900 78 0
-2900 51 0
-2900 29 0
-2900 -5 0
2900 -78 -51 -29 5 0
-2901 65 0
-2901 51 0
-2901 29 0
2901 -65 -51 -29 0
-2902 76 0
-2902 78 0
-2902 65 0
-2902 51 0
2902 -76 -78 -65 -51 0
-2903 76 0
-2903 78 0
-2903 65 0
-2903 29 0
2903 -76 -78 -65 -29 0
-2904 76 0
-2904 78 0
-2904 51 0
-2904 29 0
-2904 -4 0
2904 -76 -78 -51 -29 4 0
-2905 76 0
-2905 65 0
-2905 51 0
-2905 29 0
2905 -76 -65 -51 -29 0
-2906 78 0
-2906 65 0
-2906 51 0
-2906 29 0
2906 -78 -65 -51 -29 0
-2907 76 0
-2907 78 0
-2907 65 0
-2907 51 0
-2907 29 0
2907 -76 -78 -65 -51 -29 0
-77 2882 2883 2884 2885 2886 2887 2888 2889 2890 2891 2892 2893 2894 2895 2896 2897 2898 2899 2900 2901 2902 2903 2904 2905 2906 2907 0
-2908 79 0
-2908 77 0
2908 -79 -77 0
-2909 79 0
-2909 73 0
-2909 -74 0
2909 -79 -73 74 0
-2910 79 0
-2910 53 0
-2910 -54 0
2910 -79 -53 54 0
-2911 79 0
-2911 30 0
-2911 -31 0
2911 -79 -30 31 0
-2912 77 0
-2912 73 0
-2912 -65 0
2912 -77 -73 65 0
-2913 77 0
-2913 53 0
-2913 -51 0
2913 -77 -53 51 0
-2914 77 0
-2914 30 0
-2914 -29 0
2914 -77 -30 29 0
-2915 73 0
-2915 53 0
2915 -73 -53 0
-2916 73 0
-2916 30 0
-2916 -25 0
2916 -73 -30 25 0
-2917 53 0
-2917 30 0
-2917 -5 0
2917 -53 -30 5 0
-2918 79 0
-2918 77 0
-2918 73 0
2918 -79 -77 -73 0
-2919 79 0
-2919 77 0
-2919 53 0
2919 -79 -77 -53 0
-2920 79 0
-2920 77 0
-2920 30 0
2920 -79 -77 -30 0
-2921 79 0
-2921 73 0
-2921 53 0
2921 -79 -73 -53 0
-2922 79 0
-2922 73 0
-2922 30 0
-2922 -26 0
2922 -79 -73 -30 26 0
-2923 79 0
-2923 53 0
-2923 30 0
-2923 -6 0
2923 -79 -53 -30 6 0
-2924 77 0
-2924 73 0
-2924 53 0
2924 -77 -73 -53 0
-2925 77 0
-2925 73 0
-2925 30 0
-2925 -17 0
2925 -77 -73 -30 17 0
-2926 77 0
-2926 53 0
-2926 30 0
-2926 -3 0
2926 -77 -53 -30 3 0
-2927 73 0
-2927 53 0
-2927 30 0
2927 -73 -53 -30 0
-2928 79 0
-2928 77 0
-2928 73 0
-2928 53 0
2928 -79 -77 -73 -53 0
-2929 79 0
-2929 77 0
-2929 73 0
-2929 30 0
2929 -79 -77 -73 -30 0
-2930 79 0
-2930 77 0
-2930 53 0
-2930 30 0
2930 -79 -77 -53 -30 0
-2931 79 0
-2931 73 0
-2931 53 0
-2931 30 0
2931 -79 -73 -53 -30 0
-2932 77 0
-2932 73 0
-2932 53 0
-2932 30 0
2932 -77 -73 -53 -30 0
-2933 79 0
-2933 77 0
-2933 73 0
-2933 53 0
-2933 30 0
2933 -79 -77 -73 -53 -30 0
-78 2908 2909 2910 2911 2912 2913 2914 2915 2916 2917 2918 2919 2920 2921 2922 2923 2924 2925 2926 2927 2928 2929 2930 2931 2932 2933 0
-2934 78 0
-2934 80 0
2934 -78 -80 0
-2935 78 0
-2935 74 0
-2935 -73 0
2935 -78 -74 73 0
-2936 78 0
-2936 54 0
-2936 -53 0
2936 -78 -54 53 0
-2937 78 0
-2937 31 0
-2937 -30 0
2937 -78 -31 30 0
-2938 80 0
-2938 74 0
-2938 -75 0
2938 -80 -74 75 0
-2939 80 0
-2939 54 0
-2939 -55 0
2939 -80 -54 55 0
-2940 80 0
-2940 31 0
-2940 -32 0
2940 -80 -31 32 0
-2941 74 0
-2941 54 0
2941 -74 -54 0
-2942 74 0
-2942 31 0
-2942 -26 0
2942 -74 -31 26 0
-2943 54 0
-2943 31 0
-2943 -6 0
2943 -54 -31 6 0
-2944 78 0
-2944 80 0
-2944 74 0
2944 -78 -80 -74 0
-2945 78 0
-2945 80 0
-2945 54 0
2945 -78 -80 -54 0
-2946 78 0
-2946 80 0
-2946 31 0
2946 -78 -80 -31 0
-2947 78 0
-2947 74 0
-2947 54 0
2947 -78 -74 -54 0
-2948 78 0
-2948 74 0
-2948 31 0
-2948 -25 0
2948 -78 -74 -31 25 0
-2949 78 0
-2949 54 0
-2949 31 0
-2949 -5 0
2949 -78 -54 -31 5 0
-2950 80 0
-2950 74 0
-2950 54 0
-2950 -49 0
2950 -80 -74 -54 49 0
-2951 80 0
-2951 74 0
-2951 31 0
-2951 -27 0
2951 -80 -74 -31 27 0
-2952 80 0
-2952 54 0
-2952 31 0
-2952 -7 0
2952 -80 -54 -31 7 0
-2953 74 0
-2953 54 0
-2953 31 0
2953 -74 -54 -31 0
-2954 78 0
-2954 80 0
-2954 74 0
-2954 54 0
2954 -78 -80 -74 -54 0
-2955 78 0
-2955 80 0
-2955 74 0
-2955 31 0
2955 -78 -80 -74 -31 0
-2956 78 0
-2956 80 0
-2956 54 0
-2956 31 0
2956 -78 -80 -54 -31 0
-2957 78 0
-2957 74 0
-2957 54 0
-2957 31 0
2957 -78 -74 -54 -31 0
-2958 80 0
-2958 74 0
-2958 54 0
-2958 31 0
-2958 -1 0
2958 -80 -74 -54 -31 1 0
-2959 78 0
-2959 80 0
-2959 74 0
-2959 54 0
-2959 31 0
2959 -78 -80 -74 -54 -31 0
-79 2934 2935 2936 2937 2938 2939 2940 2941 2942 2943 2944 2945 2946 2947 2948 2949 2950 2951 2952 2953 2954 2955 2956 2957 2958 2959 0
-2960 79 0
-2960 75 0
-2960 -74 0
2960 -79 -75 74 0
-2961 79 0
-2961 55 0
-2961 -54 0
2961 -79 -55 54 0
-2962 79 0
-2962 32 0
-2962 -31 0
2962 -79 -32 31 0
-2963 75 0
-2963 55 0
-2963 -49 0
2963 -75 -55 49 0
-2964 75 0
-2964 32 0
-2964 -27 0
2964 -75 -32 27 0
-2965 55 0
-2965 32 0
-2965 -7 0
2965 -55 -32 7 0
-2966 79 0
-2966 75 0
-2966 55 0
2966 -79 -75 -55 0
-2967 79 0
-2967 75 0
-2967 32 0
-2967 -26 0
2967 -79 -75 -32 26 0
-2968 79 0
-2968 55 0
-2968 32 0
-2968 -6 0
2968 -79 -55 -32 6 0
-2969 75 0
-2969 55 0
-2969 32 0
-2969 -1 0
2969 -75 -55 -32 1 0
-2970 79 0
-2970 75 0
-2970 55 0
-2970 32 0
2970 -79 -75 -55 -32 0
-80 2960 2961 2962 2963 2964 2965 2966 2967 2968 2969 2970 0
-2971 87 0
-2971 50 0
-2971 -76 0
2971 -87 -50 76 0
-2972 87 0
-2972 89 0
-2972 -96 0
2972 -87 -89 96 0
-2973 87 0
-2973 33 0
-2973 -39 0
2973 -87 -33 39 0
-2974 50 0
-2974 89 0
-2974 -88 0
2974 -50 -89 88 0
-2975 50 0
-2975 33 0
-2975 -2 0
2975 -50 -33 2 0
-2976 89 0
-2976 33 0
-2976 -41 0
2976 -89 -33 41 0
-2977 87 0
-2977 50 0
-2977 89 0
2977 -87 -50 -89 0
-2978 87 0
-2978 50 0
-2978 33 0
-2978 -28 0
2978 -87 -50 -33 28 0
-2979 87 0
-2979 89 0
-2979 33 0
-2979 -48 0
2979 -87 -89 -33 48 0
-2980 50 0
-2980 89 0
-2980 33 0
-2980 -40 0
2980 -50 -89 -33 40 0
-2981 87 0
-2981 50 0
-2981 89 0
-2981 33 0
2981 -87 -50 -89 -33 0
-81 2971 2972 2973 2974 2975 2976 2977 2978 2979 2980 2981 0
-2982 83 0
-2982 85 0
2982 -83 -85 0
-2983 83 0
-2983 56 0
-2983 -57 0
2983 -83 -56 57 0
-2984 83 0
-2984 90 0
-2984 -91 0
2984 -83 -90 91 0
-2985 83 0
-2985 34 0
-2985 -35 0
2985 -83 -34 35 0
-2986 85 0
-2986 56 0
-2986 -59 0
2986 -85 -56 59 0
-2987 85 0
-2987 90 0
-2987 -94 0
2987 -85 -90 94 0
-2988 85 0
-2988 34 0
-2988 -37 0
2988 -85 -34 37 0
-2989 56 0
-2989 90 0
2989 -56 -90 0
-2990 56 0
-2990 34 0
-2990 -8 0
2990 -56 -34 8 0
-2991 90 0
-2991 34 0
-2991 -42 0
2991 -90 -34 42 0
-2992 83 0
-2992 85 0
-2992 56 0
2992 -83 -85 -56 0
-2993 83 0
-2993 85 0
-2993 90 0
2993 -83 -85 -90 0
-2994 83 0
-2994 85 0
-2994 34 0
2994 -83 -85 -34 0
-2995 83 0
-2995 56 0
-2995 90 0
2995 -83 -56 -90 0
-2996 83 0
-2996 56 0
-2996 34 0
-2996 -9 0
2996 -83 -56 -34 9 0
-2997 83 0
-2997 90 0
-2997 34 0
-2997 -43 0
2997 -83 -90 -34 43 0
-2998 85 0
-2998 56 0
-2998 90 0
2998 -85 -56 -90 0
-2999 85 0
-2999 56 0
-2999 34 0
-2999 -11 0
2999 -85 -56 -34 11 0
-3000 85 0
-3000 90 0
-3000 34 0
-3000 -46 0
3000 -85 -90 -34 46 0
-3001 56 0
-3001 90 0
-3001 34 0
3001 -56 -90 -34 0
-3002 83 0
-3002 85 0
-3002 56 0
-3002 90 0
3002 -83 -85 -56 -90 0
-3003 83 0
-3003 85 0
-3003 56 0
-3003 34 0
3003 -83 -85 -56 -34 0
-3004 83 0
-3004 85 0
-3004 90 0
-3004 34 0
3004 -83 -85 -90 -34 0
-3005 83 0
-3005 56 0
-3005 90 0
-3005 34 0
3005 -83 -56 -90 -34 0
-3006 85 0
-3006 56 0
-3006 90 0
-3006 34 0
3006 -85 -56 -90 -34 0
-3007 83 0
-3007 85 0
-3007 56 0
-3007 90 0
-3007 34 0
3007 -83 -85 -56 -90 -34 0
-82 2982 2983 2984 2985 2986 2987 2988 2989 2990 2991 2992 2993 2994 2995 2996 2997 2998 2999 3000 3001 3002 3003 3004 3005 3006 3007 0
-3008 82 0
-3008 84 0
3008 -82 -84 0
-3009 82 0
-3009 57 0
-3009 -56 0
3009 -82 -57 56 0
-3010 82 0
-3010 91 0
-3010 -90 0
3010 -82 -91 90 0
-3011 82 0
-3011 35 0
-3011 -34 0
3011 -82 -35 34 0
-3012 84 0
-3012 57 0
-3012 -58 0
3012 -84 -57 58 0
-3013 84 0
-3013 91 0
-3013 -93 0
3013 -84 -91 93 0
-3014 84 0
-3014 35 0
-3014 -36 0
3014 -84 -35 36 0
-3015 57 0
-3015 91 0
3015 -57 -91 0
-3016 57 0
-3016 35 0
-3016 -9 0
3016 -57 -35 9 0
-3017 91 0
-3017 35 0
-3017 -43 0
3017 -91 -35 43 0
-3018 82 0
-3018 84 0
-3018 57 0
3018 -82 -84 -57 0
-3019 82 0
-3019 84 0
-3019 91 0
-3019 -92 0
3019 -82 -84 -91 92 0
-3020 82 0
-3020 84 0
-3020 35 0
3020 -82 -84 -35 0
-3021 82 0
-3021 57 0
-3021 91 0
3021 -82 -57 -91 0
-3022 82 0
-3022 57 0
-3022 35 0
-3022 -8 0
3022 -82 -57 -35 8 0
-3023 82 0
-3023 91 0
-3023 35 0
-3023 -42 0
3023 -82 -91 -35 42 0
-3024 84 0
-3024 57 0
-3024 91 0
3024 -84 -57 -91 0
-3025 84 0
-3025 57 0
-3025 35 0
-3025 -10 0
3025 -84 -57 -35 10 0
-3026 84 0
-3026 91 0
-3026 35 0
-3026 -45 0
3026 -84 -91 -35 45 0
-3027 57 0
-3027 91 0
-3027 35 0
3027 -57 -91 -35 0
-3028 82 0
-3028 84 0
-3028 57 0
-3028 91 0
3028 -82 -84 -57 -91 0
-3029 82 0
-3029 84 0
-3029 57 0
-3029 35 0
3029 -82 -84 -57 -35 0
-3030 82 0
-3030 84 0
-3030 91 0
-3030 35 0
-3030 -44 0
3030 -82 -84 -91 -35 44 0
-3031 82 0
-3031 57 0
-3031 91 0
-3031 35 0
3031 -82 -57 -91 -35 0
-3032 84 0
-3032 57 0
-3032 91 0
-3032 35 0
3032 -84 -57 -91 -35 0
-3033 82 0
-3033 84 0
-3033 57 0
-3033 91 0
-3033 35 0
3033 -82 -84 -57 -91 -35 0
-83 3008 3009 3010 3011 3012 3013 3014 3015 3016 3017 3018 3019 3020 3021 3022 3023 3024 3025 3026 3027 3028 3029 3030 3031 3032 3033 0
-3034 83 0
-3034 58 0
-3034 -57 0
3034 -83 -58 57 0
-3035 83 0
-3035 93 0
-3035 -91 0
3035 -83 -93 91 0
-3036 83 0
-3036 36 0
-3036 -35 0
3036 -83 -36 35 0
-3037 58 0
-3037 93 0
3037 -58 -93 0
-3038 58 0
-3038 36 0
-3038 -10 0
3038 -58 -36 10 0
-3039 93 0
-3039 36 0
-3039 -45 0
3039 -93 -36 45 0
-3040 83 0
-3040 58 0
-3040 93 0
3040 -83 -58 -93 0
-3041 83 0
-3041 58 0
-3041 36 0
-3041 -9 0
3041 -83 -58 -36 9 0
-3042 83 0
-3042 93 0
-3042 36 0
-3042 -43 0
3042 -83 -93 -36 43 0
-3043 58 0
-3043 93 0
-3043 36 0
3043 -58 -93 -36 0
-3044 83 0
-3044 58 0
-3044 93 0
-3044 36 0
3044 -83 -58 -93 -36 0
-84 3034 3035 3036 3037 3038 3039 3040 3041 3042 3043 3044 0
-3045 82 0
-3045 86 0
3045 -82 -86 0
-3046 82 0
-3046 59 0
-3046 -56 0
3046 -82 -59 56 0
-3047 82 0
-3047 94 0
-3047 -90 0
3047 -82 -94 90 0
-3048 82 0
-3048 37 0
-3048 -34 0
3048 -82 -37 34 0
-3049 86 0
-3049 59 0
-3049 -60 0
3049 -86 -59 60 0
-3050 86 0
-3050 94 0
-3050 -95 0
3050 -86 -94 95 0
-3051 86 0
-3051 37 0
-3051 -38 0
3051 -86 -37 38 0
-3052 59 0
-3052 94 0
3052 -59 -94 0
-3053 59 0
-3053 37 0
-3053 -11 0
3053 -59 -37 11 0
-3054 94 0
-3054 37 0
-3054 -46 0
3054 -94 -37 46 0
-3055 82 0
-3055 86 0
-3055 59 0
3055 -82 -86 -59 0
-3056 82 0
-3056 86 0
-3056 94 0
3056 -82 -86 -94 0
-3057 82 0
-3057 86 0
-3057 37 0
3057 -82 -86 -37 0
-3058 82 0
-3058 59 0
-3058 94 0
3058 -82 -59 -94 0
-3059 82 0
-3059 59 0
-3059 37 0
-3059 -8 0
3059 -82 -59 -37 8 0
-3060 82 0
-3060 94 0
-3060 37 0
-3060 -42 0
3060 -82 -94 -37 42 0
-3061 86 0
-3061 59 0
-3061 94 0
3061 -86 -59 -94 0
-3062 86 0
-3062 59 0
-3062 37 0
-3062 -12 0
3062 -86 -59 -37 12 0
-3063 86 0
-3063 94 0
-3063 37 0
-3063 -47 0
3063 -86 -94 -37 47 0
-3064 59 0
-3064 94 0
-3064 37 0
3064 -59 -94 -37 0
-3065 82 0
-3065 86 0
-3065 59 0
-3065 94 0
3065 -82 -86 -59 -94 0
-3066 82 0
-3066 86 0
-3066 59 0
-3066 37 0
3066 -82 -86 -59 -37 0
-3067 82 0
-3067 86 0
-3067 94 0
-3067 37 0
3067 -82 -86 -94 -37 0
-3068 82 0
-3068 59 0
-3068 94 0
-3068 37 0
3068 -82 -59 -94 -37 0
-3069 86 0
-3069 59 0
-3069 94 0
-3069 37 0
3069 -86 -59 -94 -37 0
-3070 82 0
-3070 86 0
-3070 59 0
-3070 94 0
-3070 37 0
3070 -82 -86 -59 -94 -37 0
-85 3045 3046 3047 3048 3049 3050 3051 3052 3053 3054 3055 3056 3057 3058 3059 3060 3061 3062 3063 3064 3065 3066 3067 3068 3069 3070 0
-3071 85 0
-3071 87 0
3071 -85 -87 0
-3072 85 0
-3072 60 0
-3072 -59 0
3072 -85 -60 59 0
-3073 85 0
-3073 95 0
-3073 -94 0
3073 -85 -95 94 0
-3074 85 0
-3074 38 0
-3074 -37 0
3074 -85 -38 37 0
-3075 87 0
-3075 60 0
-3075 -76 0
3075 -87 -60 76 0
-3076 87 0
-3076 95 0
-3076 -96 0
3076 -87 -95 96 0
-3077 87 0
-3077 38 0
-3077 -39 0
3077 -87 -38 39 0
-3078 60 0
-3078 95 0
3078 -60 -95 0
-3079 60 0
-3079 38 0
-3079 -12 0
3079 -60 -38 12 0
-3080 95 0
-3080 38 0
-3080 -47 0
3080 -95 -38 47 0
-3081 85 0
-3081 87 0
-3081 60 0
3081 -85 -87 -60 0
-3082 85 0
-3082 87 0
-3082 95 0
3082 -85 -87 -95 0
-3083 85 0
-3083 87 0
-3083 38 0
3083 -85 -87 -38 0
-3084 85 0
-3084 60 0
-3084 95 0
3084 -85 -60 -95 0
-3085 85 0
-3085 60 0
-3085 38 0
-3085 -11 0
3085 -85 -60 -38 11 0
-3086 85 0
-3086 95 0
-3086 38 0
-3086 -46 0
3086 -85 -95 -38 46 0
-3087 87 0
-3087 60 0
-3087 95 0
3087 -87 -60 -95 0
-3088 87 0
-3088 60 0
-3088 38 0
-3088 -28 0
3088 -87 -60 -38 28 0
-3089 87 0
-3089 95 0
-3089 38 0
-3089 -48 0
3089 -87 -95 -38 48 0
-3090 60 0
-3090 95 0
-3090 38 0
3090 -60 -95 -38 0
-3091 85 0
-3091 87 0
-3091 60 0
-3091 95 0
3091 -85 -87 -60 -95 0
-3092 85 0
-3092 87 0
-3092 60 0
-3092 38 0
3092 -85 -87 -60 -38 0
-3093 85 0
-3093 87 0
-3093 95 0
-3093 38 0
3093 -85 -87 -95 -38 0
-3094 85 0
-3094 60 0
-3094 95 0
-3094 38 0
3094 -85 -60 -95 -38 0
-3095 87 0
-3095 60 0
-3095 95 0
-3095 38 0
3095 -87 -60 -95 -38 0
-3096 85 0
-3096 87 0
-3096 60 0
-3096 95 0
-3096 38 0
3096 -85 -87 -60 -95 -38 0
-86 3071 3072 3073 3074 3075 3076 3077 3078 3079 3080 3081 3082 3083 3084 3085 3086 3087 3088 3089 3090 3091 3092 3093 3094 3095 3096 0
-3097 86 0
-3097 81 0
3097 -86 -81 0
-3098 86 0
-3098 76 0
-3098 -60 0
3098 -86 -76 60 0
-3099 86 0
-3099 96 0
-3099 -95 0
3099 -86 -96 95 0
-3100 86 0
-3100 39 0
-3100 -38 0
3100 -86 -39 38 0
-3101 81 0
-3101 76 0
-3101 -50 0
3101 -81 -76 50 0
-3102 81 0
-3102 96 0
-3102 -89 0
3102 -81 -96 89 0
-3103 81 0
-3103 39 0
-3103 -33 0
3103 -81 -39 33 0
-3104 76 0
-3104 96 0
3104 -76 -96 0
-3105 76 0
-3105 39 0
-3105 -28 0
3105 -76 -39 28 0
-3106 96 0
-3106 39 0
-3106 -48 0
3106 -96 -39 48 0
-3107 86 0
-3107 81 0
-3107 76 0
3107 -86 -81 -76 0
-3108 86 0
-3108 81 0
-3108 96 0
3108 -86 -81 -96 0
-3109 86 0
-3109 81 0
-3109 39 0
3109 -86 -81 -39 0
-3110 86 0
-3110 76 0
-3110 96 0
3110 -86 -76 -96 0
-3111 86 0
-3111 76 0
-3111 39 0
-3111 -12 0
3111 -86 -76 -39 12 0
-3112 86 0
-3112 96 0
-3112 39 0
-3112 -47 0
3112 -86 -96 -39 47 0
-3113 81 0
-3113 76 0
-3113 96 0
-3113 -88 0
3113 -81 -76 -96 88 0
-3114 81 0
-3114 76 0
-3114 39 0
-3114 -2 0
3114 -81 -76 -39 2 0
-3115 81 0
-3115 96 0
-3115 39 0
-3115 -41 0
3115 -81 -96 -39 41 0
-3116 76 0
-3116 96 0
-3116 39 0
3116 -76 -96 -39 0
-3117 86 0
-3117 81 0
-3117 76 0
-3117 96 0
3117 -86 -81 -76 -96 0
-3118 86 0
-3118 81 0
-3118 76 0
-3118 39 0
3118 -86 -81 -76 -39 0
-3119 86 0
-3119 81 0
-3119 96 0
-3119 39 0
3119 -86 -81 -96 -39 0
-3120 86 0
-3120 76 0
-3120 96 0
-3120 39 0
3120 -86 -76 -96 -39 0
-3121 81 0
-3121 76 0
-3121 96 0
-3121 39 0
-3121 -40 0
3121 -81 -76 -96 -39 40 0
-3122 86 0
-3122 81 0
-3122 76 0
-3122 96 0
-3122 39 0
3122 -86 -81 -76 -96 -39 0
-87 3097 3098 3099 3100 3101 3102 3103 3104 3105 3106 3107 3108 3109 3110 3111 3112 3113 3114 3115 3116 3117 3118 3119 3120 3121 3122 0
-3123 89 0
-3123 50 0
-3123 -81 0
3123 -89 -50 81 0
-3124 89 0
-3124 40 0
-3124 -41 0
3124 -89 -40 41 0
-3125 50 0
-3125 40 0
-3125 -2 0
3125 -50 -40 2 0
-3126 89 0
-3126 50 0
-3126 40 0
-3126 -33 0
3126 -89 -50 -40 33 0
-88 3123 3124 3125 3126 0
-3127 96 0
-3127 88 0
3127 -96 -88 0
-3128 96 0
-3128 81 0
-3128 -87 0
3128 -96 -81 87 0
-3129 96 0
-3129 41 0
-3129 -48 0
3129 -96 -41 48 0
-3130 88 0
-3130 81 0
-3130 -50 0
3130 -88 -81 50 0
-3131 88 0
-3131 41 0
-3131 -40 0
3131 -88 -41 40 0
-3132 81 0
-3132 41 0
-3132 -33 0
3132 -81 -41 33 0
-3133 96 0
-3133 88 0
-3133 81 0
-3133 -76 0
3133 -96 -88 -81 76 0
-3134 96 0
-3134 88 0
-3134 41 0
3134 -96 -88 -41 0
-3135 96 0
-3135 81 0
-3135 41 0
-3135 -39 0
3135 -96 -81 -41 39 0
-3136 88 0
-3136 81 0
-3136 41 0
-3136 -2 0
3136 -88 -81 -41 2 0
-3137 96 0
-3137 88 0
-3137 81 0
-3137 41 0
-3137 -28 0
3137 -96 -88 -81 -41 28 0
-89 3127 3128 3129 3130 3131 3132 3133 3134 3135 3136 3137 0
-3138 91 0
-3138 92 0
-3138 -93 0
3138 -91 -92 93 0
-3139 91 0
-3139 94 0
3139 -91 -94 0
-3140 91 0
-3140 82 0
-3140 -83 0
3140 -91 -82 83 0
-3141 91 0
-3141 42 0
-3141 -43 0
3141 -91 -42 43 0
-3142 92 0
-3142 94 0
3142 -92 -94 0
-3143 92 0
-3143 82 0
3143 -92 -82 0
-3144 92 0
-3144 42 0
-3144 -44 0
3144 -92 -42 44 0
-3145 94 0
-3145 82 0
-3145 -85 0
3145 -94 -82 85 0
-3146 94 0
-3146 42 0
-3146 -46 0
3146 -94 -42 46 0
-3147 82 0
-3147 42 0
-3147 -34 0
3147 -82 -42 34 0
-3148 91 0
-3148 92 0
-3148 94 0
3148 -91 -92 -94 0
-3149 91 0
-3149 92 0
-3149 82 0
-3149 -84 0
3149 -91 -92 -82 84 0
-3150 91 0
-3150 92 0
-3150 42 0
-3150 -45 0
3150 -91 -92 -42 45 0
-3151 91 0
-3151 94 0
-3151 82 0
3151 -91 -94 -82 0
-3152 91 0
-3152 94 0
-3152 42 0
3152 -91 -94 -42 0
-3153 91 0
-3153 82 0
-3153 42 0
-3153 -35 0
3153 -91 -82 -42 35 0
-3154 92 0
-3154 94 0
-3154 82 0
3154 -92 -94 -82 0
-3155 92 0
-3155 94 0
-3155 42 0
3155 -92 -94 -42 0
-3156 92 0
-3156 82 0
-3156 42 0
3156 -92 -82 -42 0
-3157 94 0
-3157 82 0
-3157 42 0
-3157 -37 0
3157 -94 -82 -42 37 0
-3158 91 0
-3158 92 0
-3158 94 0
-3158 82 0
3158 -91 -92 -94 -82 0
-3159 91 0
-3159 92 0
-3159 94 0
-3159 42 0
3159 -91 -92 -94 -42 0
-3160 91 0
-3160 92 0
-3160 82 0
-3160 42 0
-3160 -36 0
3160 -91 -92 -82 -42 36 0
-3161 91 0
-3161 94 0
-3161 82 0
-3161 42 0
3161 -91 -94 -82 -42 0
-3162 92 0
-3162 94 0
-3162 82 0
-3162 42 0
3162 -92 -94 -82 -42 0
-3163 91 0
-3163 92 0
-3163 94 0
-3163 82 0
-3163 42 0
3163 -91 -92 -94 -82 -42 0
-90 3138 3139 3140 3141 3142 3143 3144 3145 3146 3147 3148 3149 3150 3151 3152 3153 3154 3155 3156 3157 3158 3159 3160 3161 3162 3163 0
-3164 90 0
-3164 93 0
-3164 -92 0
3164 -90 -93 92 0
-3165 90 0
-3165 83 0
-3165 -82 0
3165 -90 -83 82 0
-3166 90 0
-3166 43 0
-3166 -42 0
3166 -90 -43 42 0
-3167 93 0
-3167 83 0
-3167 -84 0
3167 -93 -83 84 0
-3168 93 0
-3168 43 0
-3168 -45 0
3168 -93 -43 45 0
-3169 83 0
-3169 43 0
-3169 -35 0
3169 -83 -43 35 0
-3170 90 0
-3170 93 0
-3170 83 0
3170 -90 -93 -83 0
-3171 90 0
-3171 93 0
-3171 43 0
-3171 -44 0
3171 -90 -93 -43 44 0
-3172 90 0
-3172 83 0
-3172 43 0
-3172 -34 0
3172 -90 -83 -43 34 0
-3173 93 0
-3173 83 0
-3173 43 0
-3173 -36 0
3173 -93 -83 -43 36 0
-3174 90 0
-3174 93 0
-3174 83 0
-3174 43 0
3174 -90 -93 -83 -43 0
-91 3164 3165 3166 3167 3168 3169 3170 3171 3172 3173 3174 0
-3175 93 0
-3175 90 0
-3175 -91 0
3175 -93 -90 91 0
-3176 93 0
-3176 44 0
-3176 -45 0
3176 -93 -44 45 0
-3177 90 0
-3177 44 0
-3177 -42 0
3177 -90 -44 42 0
-3178 93 0
-3178 90 0
-3178 44 0
-3178 -43 0
3178 -93 -90 -44 43 0
-92 3175 3176 3177 3178 0
-3179 92 0
-3179 91 0
-3179 -90 0
3179 -92 -91 90 0
-3180 92 0
-3180 84 0
3180 -92 -84 0
-3181 92 0
-3181 45 0
-3181 -44 0
3181 -92 -45 44 0
-3182 91 0
-3182 84 0
-3182 -83 0
3182 -91 -84 83 0
-3183 91 0
-3183 45 0
-3183 -43 0
3183 -91 -45 43 0
-3184 84 0
-3184 45 0
-3184 -36 0
3184 -84 -45 36 0
-3185 92 0
-3185 91 0
-3185 84 0
-3185 -82 0
3185 -92 -91 -84 82 0
-3186 92 0
-3186 91 0
-3186 45 0
-3186 -42 0
3186 -92 -91 -45 42 0
-3187 92 0
-3187 84 0
-3187 45 0
3187 -92 -84 -45 0
-3188 91 0
-3188 84 0
-3188 45 0
-3188 -35 0
3188 -91 -84 -45 35 0
-3189 92 0
-3189 91 0
-3189 84 0
-3189 45 0
-3189 -34 0
3189 -92 -91 -84 -45 34 0
-93 3179 3180 3181 3182 3183 3184 3185 3186 3187 3188 3189 0
-3190 90 0
-3190 95 0
3190 -90 -95 0
-3191 90 0
-3191 85 0
-3191 -82 0
3191 -90 -85 82 0
-3192 90 0
-3192 46 0
-3192 -42 0
3192 -90 -46 42 0
-3193 95 0
-3193 85 0
-3193 -86 0
3193 -95 -85 86 0
-3194 95 0
-3194 46 0
-3194 -47 0
3194 -95 -46 47 0
-3195 85 0
-3195 46 0
-3195 -37 0
3195 -85 -46 37 0
-3196 90 0
-3196 95 0
-3196 85 0
3196 -90 -95 -85 0
-3197 90 0
-3197 95 0
-3197 46 0
3197 -90 -95 -46 0
-3198 90 0
-3198 85 0
-3198 46 0
-3198 -34 0
3198 -90 -85 -46 34 0
-3199 95 0
-3199 85 0
-3199 46 0
-3199 -38 0
3199 -95 -85 -46 38 0
-3200 90 0
-3200 95 0
-3200 85 0
-3200 46 0
3200 -90 -95 -85 -46 0
-94 3190 3191 3192 3193 3194 3195 3196 3197 3198 3199 3200 0
-3201 94 0
-3201 96 0
3201 -94 -96 0
-3202 94 0
-3202 86 0
-3202 -85 0
3202 -94 -86 85 0
-3203 94 0
-3203 47 0
-3203 -46 0
3203 -94 -47 46 0
-3204 96 0
-3204 86 0
-3204 -87 0
3204 -96 -86 87 0
-3205 96 0
-3205 47 0
-3205 -48 0
3205 -96 -47 48 0
-3206 86 0
-3206 47 0
-3206 -38 0
3206 -86 -47 38 0
-3207 94 0
-3207 96 0
-3207 86 0
3207 -94 -96 -86 0
-3208 94 0
-3208 96 0
-3208 47 0
3208 -94 -96 -47 0
-3209 94 0
-3209 86 0
-3209 47 0
-3209 -37 0
3209 -94 -86 -47 37 0
-3210 96 0
-3210 86 0
-3210 47 0
-3210 -39 0
3210 -96 -86 -47 39 0
-3211 94 0
-3211 96 0
-3211 86 0
-3211 47 0
3211 -94 -96 -86 -47 0
-95 3201 3202 3203 3204 3205 3206 3207 3208 3209 3210 3211 0
-3212 95 0
-3212 89 0
3212 -95 -89 0
-3213 95 0
-3213 87 0
-3213 -86 0
3213 -95 -87 86 0
-3214 95 0
-3214 48 0
-3214 -47 0
3214 -95 -48 47 0
-3215 89 0
-3215 87 0
-3215 -81 0
3215 -89 -87 81 0
-3216 89 0
-3216 48 0
-3216 -41 0
3216 -89 -48 41 0
-3217 87 0
-3217 48 0
-3217 -39 0
3217 -87 -48 39 0
-3218 95 0
-3218 89 0
-3218 87 0
3218 -95 -89 -87 0
-3219 95 0
-3219 89 0
-3219 48 0
3219 -95 -89 -48 0
-3220 95 0
-3220 87 0
-3220 48 0
-3220 -38 0
3220 -95 -87 -48 38 0
-3221 89 0
-3221 87 0
-3221 48 0
-3221 -33 0
3221 -89 -87 -48 33 0
-3222 95 0
-3222 89 0
-3222 87 0
-3222 48 0
3222 -95 -89 -87 -48 0
-96 3212 3213 3214 3215 3216 3217 3218 3219 3220 3221 3222 0
1 2 3 4 5 6 7 8 9 10 11 12 13 14 15 16 17 18 19 20 21 22 23 24 25 26 27 28 29 30 31 32 33 34 35 36 37 38 39 40 41 42 43 44 45 46 47 48 49 50 51 52 53 54 55 56 57 58 59 60 61 62 63 64 65 66 67 68 69 70 71 72 73 74 75 76 77 78 79 80 81 82 83 84 85 86 87 88 89 90 91 92 93 94 95 96 0
